Fe4 H16 N4 F14                          
   1.00000000000000     
    -7.7150150996027484    0.0459176659501845   -0.0744178124965763
    -3.8510538442786051   -5.3408443290576670   -4.1920375718500864
    -3.7667932560477557   -5.2923236282299531    4.0434095134106505
   Fe   H    N    F 
     4    16     4    14
Direct
  0.7522476318851545  0.9922768021311938  0.0004869547243231
  0.2491178515828381  0.9953336467332221  0.0104381305529273
  0.2576818325849004  0.4924544921229170  0.0136579176360812
  0.7329340162831954  0.0033852463352062  0.5046644005618148
  0.3104990649497807  0.8405178546294252  0.5895155454047440
  0.1481206863853899  0.9970056514003502  0.4489856353648420
  0.3379513301969794  0.0630585468101046  0.4173487128435127
  0.1352773388452491  0.0615772673042159  0.6393910780639374
  0.6859945247803267  0.5002495568305108  0.6071601663465458
  0.7216812471878811  0.4229422721754261  0.4181100446476691
  0.7293657024906395  0.6526699214639606  0.3736247175712251
  0.9336094208602645  0.4422961092259285  0.4148476644740953
  0.9060810166478532  0.4146846040972747  0.0114133905813958
  0.6627490957155189  0.5934660600802388  0.0892824744954765
  0.7754187077087948  0.5868467957616943  0.8464249000016295
  0.6868420083982798  0.4007815794798759  0.0265229351329452
  0.2957679289693402  0.5816818521686429  0.3442729271537601
  0.3018204567951059  0.5584990400940981  0.5766102504737631
  0.0810360158962311  0.5887342402815889  0.5517416576198642
  0.2955098946862549  0.3711550219875335  0.5327697913796001
  0.2443615153519900  0.5253856099111331  0.5020513804590152
  0.2344552898681158  0.9907449285707060  0.5217772997084253
  0.7679055490676774  0.5034680780656160  0.4547886137024975
  0.7583149946800987  0.4967338827235466  0.9956528003115395
  0.3722561022685014  0.6047100791190516  0.7154242959462351
  0.1771366274639234  0.3694458495016875  0.3091243102176904
  0.4459455382291040  0.0366919996352522  0.6916370043558047
  0.0267991187690129  0.9724778563699061  0.3253029327118071
  0.7984974923832908  0.0290729295484979  0.7115752396285728
  0.6853067284312502  0.9583971778648532  0.2967533014081454
  0.8207196678459781  0.7154091793253912  0.6113728348270797
  0.6470126925279516  0.2839138544881905  0.3818709871165353
  0.1725108683512389  0.2885197418926495  0.9777357989518904
  0.3218233842605187  0.6994508898039911  0.0691732305538366
  0.5760078447899133  0.2743150603704052  0.9791201635245201
  0.9409239684471871  0.7130548644757297  0.0275963143876297
  0.9908449048504906  0.0708476357175343  0.9153370167810877
  0.5169225026408881  0.9075818260424242  0.0955914835222842
 
  0.00000000E+00  0.00000000E+00  0.00000000E+00
  0.00000000E+00  0.00000000E+00  0.00000000E+00
  0.00000000E+00  0.00000000E+00  0.00000000E+00
  0.00000000E+00  0.00000000E+00  0.00000000E+00
  0.00000000E+00  0.00000000E+00  0.00000000E+00
  0.00000000E+00  0.00000000E+00  0.00000000E+00
  0.00000000E+00  0.00000000E+00  0.00000000E+00
  0.00000000E+00  0.00000000E+00  0.00000000E+00
  0.00000000E+00  0.00000000E+00  0.00000000E+00
  0.00000000E+00  0.00000000E+00  0.00000000E+00
  0.00000000E+00  0.00000000E+00  0.00000000E+00
  0.00000000E+00  0.00000000E+00  0.00000000E+00
  0.00000000E+00  0.00000000E+00  0.00000000E+00
  0.00000000E+00  0.00000000E+00  0.00000000E+00
  0.00000000E+00  0.00000000E+00  0.00000000E+00
  0.00000000E+00  0.00000000E+00  0.00000000E+00
  0.00000000E+00  0.00000000E+00  0.00000000E+00
  0.00000000E+00  0.00000000E+00  0.00000000E+00
  0.00000000E+00  0.00000000E+00  0.00000000E+00
  0.00000000E+00  0.00000000E+00  0.00000000E+00
  0.00000000E+00  0.00000000E+00  0.00000000E+00
  0.00000000E+00  0.00000000E+00  0.00000000E+00
  0.00000000E+00  0.00000000E+00  0.00000000E+00
  0.00000000E+00  0.00000000E+00  0.00000000E+00
  0.00000000E+00  0.00000000E+00  0.00000000E+00
  0.00000000E+00  0.00000000E+00  0.00000000E+00
  0.00000000E+00  0.00000000E+00  0.00000000E+00
  0.00000000E+00  0.00000000E+00  0.00000000E+00
  0.00000000E+00  0.00000000E+00  0.00000000E+00
  0.00000000E+00  0.00000000E+00  0.00000000E+00
  0.00000000E+00  0.00000000E+00  0.00000000E+00
  0.00000000E+00  0.00000000E+00  0.00000000E+00
  0.00000000E+00  0.00000000E+00  0.00000000E+00
  0.00000000E+00  0.00000000E+00  0.00000000E+00
  0.00000000E+00  0.00000000E+00  0.00000000E+00
  0.00000000E+00  0.00000000E+00  0.00000000E+00
  0.00000000E+00  0.00000000E+00  0.00000000E+00
  0.00000000E+00  0.00000000E+00  0.00000000E+00
