Fe4 H16 N4 F14                          
   1.00000000000000     
    -7.7050400174727489    0.0405097885365486   -0.0844952385536461
    -3.8533471357719780   -5.3511869000823120   -4.2023966799049601
    -3.7637360981416825   -5.2974590596056972    4.0415397294096689
   Fe   H    N    F 
     4    16     4    14
Direct
  0.7523170854880712  0.9922655259112368  0.0003761206625891
  0.2489796885203051  0.9950892908344293  0.0105647221174016
  0.2577340471975764  0.4925200589154392  0.0130223601207689
  0.7327190449296402  0.0028399302559902  0.5055817642522374
  0.3143076116444958  0.8422766327543487  0.5850029340761125
  0.1466380162788377  0.9971057567449545  0.4502380089256564
  0.3336684965284635  0.0684727713645892  0.4159186782557194
  0.1358787680109702  0.0592084992581308  0.6410022236439951
  0.6836165722530427  0.5142264054507844  0.5997805596218898
  0.7236557876356291  0.4201773858671420  0.4206439178743815
  0.7391177700664739  0.6497927583281096  0.3588102859845583
  0.9354370229039913  0.4410094756462242  0.4163157163129587
  0.9065240856180374  0.4143599375685756  0.0143552181042147
  0.6586359932411178  0.5861332065669994  0.0977274636258646
  0.7738154210594133  0.5900283158978311  0.8516468122117877
  0.6910859327460366  0.3980612419580113  0.0227962914741740
  0.2906593885849340  0.5802647272878487  0.3460990781959423
  0.3003120574106067  0.5585297740088473  0.5760478158643795
  0.0777557321053075  0.5873828185887969  0.5552186240881271
  0.2927385891132514  0.3702905203071070  0.5353014405466852
  0.2413628846156583  0.5243810960067889  0.5038665748896884
  0.2343874588441735  0.9919160276337604  0.5208931810973129
  0.7702807082690621  0.5049938266811826  0.4509561631782938
  0.7581880776030723  0.4951502777693221 -0.0012335776274112
  0.3718896361632676  0.6057210028371488  0.7151253513769837
  0.1801521159870028  0.3688890713312382  0.3084884585720314
  0.4454389839575038  0.0375135254416443  0.6919126801491119
  0.0273335675148190  0.9705583796547046  0.3258279486995712
  0.8003729274891381  0.0276673579831848  0.7114692583297104
  0.6873425704941496  0.9597203857312976  0.2953398273882260
  0.8181275036098007  0.7155785784936528  0.6145768735234740
  0.6476787433319255  0.2832840105804522  0.3839916737033355
  0.1725845498198324  0.2881617032939783  0.9776399051185964
  0.3218280035545477  0.6993970262601421  0.0689008770396417
  0.5766970951471704  0.2743876395231850  0.9771037009098331
  0.9406729956448098  0.7126841963291619  0.0270767396280763
  0.9914390775824670  0.0705970796647888  0.9146094366578789
  0.5160765521125005  0.9092017858089297  0.0961591945509580
 
  0.00000000E+00  0.00000000E+00  0.00000000E+00
  0.00000000E+00  0.00000000E+00  0.00000000E+00
  0.00000000E+00  0.00000000E+00  0.00000000E+00
  0.00000000E+00  0.00000000E+00  0.00000000E+00
  0.00000000E+00  0.00000000E+00  0.00000000E+00
  0.00000000E+00  0.00000000E+00  0.00000000E+00
  0.00000000E+00  0.00000000E+00  0.00000000E+00
  0.00000000E+00  0.00000000E+00  0.00000000E+00
  0.00000000E+00  0.00000000E+00  0.00000000E+00
  0.00000000E+00  0.00000000E+00  0.00000000E+00
  0.00000000E+00  0.00000000E+00  0.00000000E+00
  0.00000000E+00  0.00000000E+00  0.00000000E+00
  0.00000000E+00  0.00000000E+00  0.00000000E+00
  0.00000000E+00  0.00000000E+00  0.00000000E+00
  0.00000000E+00  0.00000000E+00  0.00000000E+00
  0.00000000E+00  0.00000000E+00  0.00000000E+00
  0.00000000E+00  0.00000000E+00  0.00000000E+00
  0.00000000E+00  0.00000000E+00  0.00000000E+00
  0.00000000E+00  0.00000000E+00  0.00000000E+00
  0.00000000E+00  0.00000000E+00  0.00000000E+00
  0.00000000E+00  0.00000000E+00  0.00000000E+00
  0.00000000E+00  0.00000000E+00  0.00000000E+00
  0.00000000E+00  0.00000000E+00  0.00000000E+00
  0.00000000E+00  0.00000000E+00  0.00000000E+00
  0.00000000E+00  0.00000000E+00  0.00000000E+00
  0.00000000E+00  0.00000000E+00  0.00000000E+00
  0.00000000E+00  0.00000000E+00  0.00000000E+00
  0.00000000E+00  0.00000000E+00  0.00000000E+00
  0.00000000E+00  0.00000000E+00  0.00000000E+00
  0.00000000E+00  0.00000000E+00  0.00000000E+00
  0.00000000E+00  0.00000000E+00  0.00000000E+00
  0.00000000E+00  0.00000000E+00  0.00000000E+00
  0.00000000E+00  0.00000000E+00  0.00000000E+00
  0.00000000E+00  0.00000000E+00  0.00000000E+00
  0.00000000E+00  0.00000000E+00  0.00000000E+00
  0.00000000E+00  0.00000000E+00  0.00000000E+00
  0.00000000E+00  0.00000000E+00  0.00000000E+00
  0.00000000E+00  0.00000000E+00  0.00000000E+00
