Iron fluoride                           
   1.00000000000000     
    17.8033997245967939    0.0450377748087056    0.0033860041877470
     0.0806457415082448   18.7222020162036848   -0.0001467461907541
     0.0188616661062447   -0.0153430277535881   19.8128623447398873
   F 
     1
Direct
 -0.0000031127070654  0.0000109351389786  0.0000005234904774
 
  0.00000000E+00  0.00000000E+00  0.00000000E+00
