Iron fluoride
1.0
       18.0000000000         0.0000000000         0.0000000000
        0.0000000000        19.0000000000         0.0000000000
        0.0000000000         0.0000000000        20.0000000000
    F
    1
Direct
     0.000000000         0.000000000         0.000000000
