Fe8 H16 N4 F24                          
   1.00000000000000     
     6.9406924056090880    0.0148119144566243    0.0360718552576347
     0.0174871476420271    7.4268630077037070    0.0130144450349869
     0.0528844723157989    0.0156512902191899   10.0158914484857942
   Fe   H    N    F 
     8    16     4    24
Direct
  0.5003566960465307  0.4986759934895630  0.4998785952413130
  0.4994757710345681  0.9984157961673574  0.4992510010891635
  0.8043225301424357  0.7542725383486086  0.7276044645095538
  0.3015518465102645  0.7496176968217370  0.7714479010357564
  0.9985534349417122  0.5011676901547943  0.9989106293757217
  0.9983023092902243  0.0018456837811698  0.9997437652943120
  0.7001039425222402  0.2539802881883233  0.2298023257526651
  0.1946322624503409  0.2467798726915333  0.2709511291080844
  0.0353142346899489  0.6552897416436920  0.3018786060309608
  0.9034923991303856  0.6788261391738075  0.4431898664704477
  0.9176477701039545  0.8501486684296680  0.3335712031503633
  0.1075128441284647  0.7943984043547658  0.4238118883507909
  0.9679148937221527  0.3411232642524666  0.6989349492380370
  0.1020380175626272  0.1560807388156462  0.6634188323109029
  0.0841137449276346  0.3220310196075147  0.5510566975943760
  0.8957353094147678  0.1894362039250055  0.5853640012867913
  0.4756663428533514  0.2746144072301036  0.9793500010607517
  0.6367221470205564  0.1969082367672712  0.8682161468570726
  0.4081411773496129  0.1343607446404889  0.8594332261345201
  0.4682988279583213  0.3471741801173138  0.8188719678633376
  0.5634236633828351  0.8664085741040211  0.1635330970699371
  0.3548101400647425  0.7704658600166923  0.1256193762324713
  0.5423547393218229  0.6421300609596585  0.1725422820286724
  0.5422875315435292  0.7461959501277775  0.0219839731103875
  0.5009314161148097  0.7556559078930221  0.1211187017154174
  0.9906242662133522  0.7442423209173299  0.3748712798258111
  0.0124079188851738  0.2527867004527025  0.6254530866791654
  0.4977025372323993  0.2400012039919304  0.8807613142652997
  0.7472467637553279  0.5709451791135649  0.5688925377936087
  0.2546714812029407  0.4293850227249152  0.4290278488899446
  0.3930391074737685  0.5070831560299496  0.6766740837178062
  0.6120406881399347  0.4959528727731382  0.3241321663555397
  0.7414780493564592  0.9398965128102574  0.5776167856022028
  0.2582315697856998  0.0600118366982230  0.4208860694502192
  0.3741084517592981  0.9940630286364467  0.6709468948083881
  0.6226694191458932  0.0070288330079009  0.3265721319620809
  0.4275967118486506  0.7485896063539457  0.4716154824998497
  0.5714384458796502  0.2491932097910521  0.5274991493019670
  0.5731420468380293  0.7517767198431002  0.8436503200644552
  0.0743722298057818  0.7526547744828989  0.6572327136750005
  0.2420953281435416  0.5679189074068844  0.9243768310435954
  0.7547812129696823  0.4377988347956787  0.0751769959630693
  0.1113391002630308  0.4932134771740735  0.1745157828578385
  0.8867882412653358  0.5075140117401062  0.8233218507119986
  0.2422272926304743  0.9407282965560526  0.9189587656213405
  0.7575937620760200  0.0670048378304813  0.0803577434149219
  0.1197818979735601  0.0057778118396357  0.1701315322092825
  0.8766458784549158  0.9966281648042781  0.8292888335206499
  0.0687032183449219  0.2518216314321720  0.9694893341712145
  0.9301809430499830  0.7514733112030427  0.0284063848691360
  0.9263134964888380  0.2496670761476665  0.3438821503025977
  0.4282524768432339  0.2550978362529577  0.1580188494093946
 
  0.00000000E+00  0.00000000E+00  0.00000000E+00
  0.00000000E+00  0.00000000E+00  0.00000000E+00
  0.00000000E+00  0.00000000E+00  0.00000000E+00
  0.00000000E+00  0.00000000E+00  0.00000000E+00
  0.00000000E+00  0.00000000E+00  0.00000000E+00
  0.00000000E+00  0.00000000E+00  0.00000000E+00
  0.00000000E+00  0.00000000E+00  0.00000000E+00
  0.00000000E+00  0.00000000E+00  0.00000000E+00
  0.00000000E+00  0.00000000E+00  0.00000000E+00
  0.00000000E+00  0.00000000E+00  0.00000000E+00
  0.00000000E+00  0.00000000E+00  0.00000000E+00
  0.00000000E+00  0.00000000E+00  0.00000000E+00
  0.00000000E+00  0.00000000E+00  0.00000000E+00
  0.00000000E+00  0.00000000E+00  0.00000000E+00
  0.00000000E+00  0.00000000E+00  0.00000000E+00
  0.00000000E+00  0.00000000E+00  0.00000000E+00
  0.00000000E+00  0.00000000E+00  0.00000000E+00
  0.00000000E+00  0.00000000E+00  0.00000000E+00
  0.00000000E+00  0.00000000E+00  0.00000000E+00
  0.00000000E+00  0.00000000E+00  0.00000000E+00
  0.00000000E+00  0.00000000E+00  0.00000000E+00
  0.00000000E+00  0.00000000E+00  0.00000000E+00
  0.00000000E+00  0.00000000E+00  0.00000000E+00
  0.00000000E+00  0.00000000E+00  0.00000000E+00
  0.00000000E+00  0.00000000E+00  0.00000000E+00
  0.00000000E+00  0.00000000E+00  0.00000000E+00
  0.00000000E+00  0.00000000E+00  0.00000000E+00
  0.00000000E+00  0.00000000E+00  0.00000000E+00
  0.00000000E+00  0.00000000E+00  0.00000000E+00
  0.00000000E+00  0.00000000E+00  0.00000000E+00
  0.00000000E+00  0.00000000E+00  0.00000000E+00
  0.00000000E+00  0.00000000E+00  0.00000000E+00
  0.00000000E+00  0.00000000E+00  0.00000000E+00
  0.00000000E+00  0.00000000E+00  0.00000000E+00
  0.00000000E+00  0.00000000E+00  0.00000000E+00
  0.00000000E+00  0.00000000E+00  0.00000000E+00
  0.00000000E+00  0.00000000E+00  0.00000000E+00
  0.00000000E+00  0.00000000E+00  0.00000000E+00
  0.00000000E+00  0.00000000E+00  0.00000000E+00
  0.00000000E+00  0.00000000E+00  0.00000000E+00
  0.00000000E+00  0.00000000E+00  0.00000000E+00
  0.00000000E+00  0.00000000E+00  0.00000000E+00
  0.00000000E+00  0.00000000E+00  0.00000000E+00
  0.00000000E+00  0.00000000E+00  0.00000000E+00
  0.00000000E+00  0.00000000E+00  0.00000000E+00
  0.00000000E+00  0.00000000E+00  0.00000000E+00
  0.00000000E+00  0.00000000E+00  0.00000000E+00
  0.00000000E+00  0.00000000E+00  0.00000000E+00
  0.00000000E+00  0.00000000E+00  0.00000000E+00
  0.00000000E+00  0.00000000E+00  0.00000000E+00
  0.00000000E+00  0.00000000E+00  0.00000000E+00
  0.00000000E+00  0.00000000E+00  0.00000000E+00
