Fe8 H16 N4 F24                          
   1.00000000000000     
     6.9516493995727799    0.0116069970706885    0.0322668912847872
     0.0140397534524966    7.4232620751325022    0.0118116769972525
     0.0469653562588313    0.0156896238202557   10.0196539347434062
   Fe   H    N    F 
     8    16     4    24
Direct
  0.5004664911514608  0.4988664441371035  0.4998597197065176
  0.4995689481700980 -0.0017228851815166  0.4995744903313004
  0.8036379530485025  0.7545574189539636  0.7288591708324603
  0.3011761874218650  0.7499934650287847  0.7717942952131843
 -0.0011064728043638  0.5012714922440690 -0.0009765887512500
 -0.0014496044731257  0.0017895339000883 -0.0002666916471056
  0.6998208677238685  0.2522068562691122  0.2292860229150747
  0.1960859127057885  0.2470608597497413  0.2699464421772336
  0.0365005666972093  0.6542715608992075  0.3032519082699669
  0.9045247679881124  0.6807149580137383  0.4439546305187373
  0.9207501230264030  0.8504812572001378  0.3329117008130125
  0.1093599849399528  0.7947951439453689  0.4240294824092096
  0.9667514633754627  0.3425785194230205  0.6981523678576250
  0.0985499848246455  0.1558777289949242  0.6634077863776884
  0.0820138963226339  0.3212324356870370  0.5502930446724604
  0.8926341609450500  0.1904809945933265  0.5855042366745378
  0.4770363768467678  0.2745152798597904  0.9794167302241688
  0.6372551606675286  0.2000166766875048  0.8668617207457182
  0.4094924147203172  0.1351415067279342  0.8588396396210672
  0.4669710282089714  0.3494442265625755  0.8198206382540048
  0.5627585979490043  0.8653588857393536  0.1627138205740195
  0.3548755533680997  0.7659331857342389  0.1278382775763069
  0.5457585376714946  0.6404969400625372  0.1713085238887809
  0.5391865141205899  0.7456129224813619  0.0212754682187066
  0.5009116993160972  0.7537653884010386  0.1209461156758165
  0.9922637728862522  0.7445716201697414  0.3753365455791896
  0.0100669278556490  0.2531839868413966  0.6251039972090563
  0.4981810215929565  0.2414427124901248  0.8804864624303198
  0.7462260510703175  0.5726936771001847  0.5687466271032274
  0.2542893711676539  0.4284968050646600  0.4293869950675489
  0.3938445822189954  0.5072416344543116  0.6770428762433658
  0.6110008778468586  0.4946268359989877  0.3241787647292574
  0.7406196056289176  0.9407247789271330  0.5791252254896498
  0.2591727208951602  0.0598006768022230  0.4203203685083201
  0.3733473627317959  0.9947791471261194  0.6709120395207488
  0.6230306230902031  0.0055277618603692  0.3270975262180634
  0.4264411464132219  0.7481262426245605  0.4722876320897652
  0.5724063112561951  0.2492032509245750  0.5271528982204582
  0.5722687485011256  0.7524071524292795  0.8441332185253950
  0.0731516450819363  0.7535512750069888  0.6585367556187218
  0.2419960602772632  0.5682331793015278  0.9246896787419799
  0.7561511243928541  0.4370184954826260  0.0756356515189816
  0.1125745847517618  0.4943421614800245  0.1746124462795821
  0.8862265667685126  0.5074972677926727  0.8237530734167722
  0.2413993024617240  0.9418181889853070  0.9177498506491942
  0.7581741016863260  0.0649935882649425  0.0807415124652259
  0.1221289422308842  0.0045865187458021  0.1693501011478909
  0.8751416696778036  0.9983299648118298  0.8300223914469056
  0.0691859320836459  0.2520934452397550  0.9697581399171216
  0.9299385396786811  0.7512123210388715  0.0281245237820333
  0.9277030901271385  0.2485342754516965  0.3414712362629292
  0.4287147317474559  0.2544810759822078  0.1568820555672543
 
  0.00000000E+00  0.00000000E+00  0.00000000E+00
  0.00000000E+00  0.00000000E+00  0.00000000E+00
  0.00000000E+00  0.00000000E+00  0.00000000E+00
  0.00000000E+00  0.00000000E+00  0.00000000E+00
  0.00000000E+00  0.00000000E+00  0.00000000E+00
  0.00000000E+00  0.00000000E+00  0.00000000E+00
  0.00000000E+00  0.00000000E+00  0.00000000E+00
  0.00000000E+00  0.00000000E+00  0.00000000E+00
  0.00000000E+00  0.00000000E+00  0.00000000E+00
  0.00000000E+00  0.00000000E+00  0.00000000E+00
  0.00000000E+00  0.00000000E+00  0.00000000E+00
  0.00000000E+00  0.00000000E+00  0.00000000E+00
  0.00000000E+00  0.00000000E+00  0.00000000E+00
  0.00000000E+00  0.00000000E+00  0.00000000E+00
  0.00000000E+00  0.00000000E+00  0.00000000E+00
  0.00000000E+00  0.00000000E+00  0.00000000E+00
  0.00000000E+00  0.00000000E+00  0.00000000E+00
  0.00000000E+00  0.00000000E+00  0.00000000E+00
  0.00000000E+00  0.00000000E+00  0.00000000E+00
  0.00000000E+00  0.00000000E+00  0.00000000E+00
  0.00000000E+00  0.00000000E+00  0.00000000E+00
  0.00000000E+00  0.00000000E+00  0.00000000E+00
  0.00000000E+00  0.00000000E+00  0.00000000E+00
  0.00000000E+00  0.00000000E+00  0.00000000E+00
  0.00000000E+00  0.00000000E+00  0.00000000E+00
  0.00000000E+00  0.00000000E+00  0.00000000E+00
  0.00000000E+00  0.00000000E+00  0.00000000E+00
  0.00000000E+00  0.00000000E+00  0.00000000E+00
  0.00000000E+00  0.00000000E+00  0.00000000E+00
  0.00000000E+00  0.00000000E+00  0.00000000E+00
  0.00000000E+00  0.00000000E+00  0.00000000E+00
  0.00000000E+00  0.00000000E+00  0.00000000E+00
  0.00000000E+00  0.00000000E+00  0.00000000E+00
  0.00000000E+00  0.00000000E+00  0.00000000E+00
  0.00000000E+00  0.00000000E+00  0.00000000E+00
  0.00000000E+00  0.00000000E+00  0.00000000E+00
  0.00000000E+00  0.00000000E+00  0.00000000E+00
  0.00000000E+00  0.00000000E+00  0.00000000E+00
  0.00000000E+00  0.00000000E+00  0.00000000E+00
  0.00000000E+00  0.00000000E+00  0.00000000E+00
  0.00000000E+00  0.00000000E+00  0.00000000E+00
  0.00000000E+00  0.00000000E+00  0.00000000E+00
  0.00000000E+00  0.00000000E+00  0.00000000E+00
  0.00000000E+00  0.00000000E+00  0.00000000E+00
  0.00000000E+00  0.00000000E+00  0.00000000E+00
  0.00000000E+00  0.00000000E+00  0.00000000E+00
  0.00000000E+00  0.00000000E+00  0.00000000E+00
  0.00000000E+00  0.00000000E+00  0.00000000E+00
  0.00000000E+00  0.00000000E+00  0.00000000E+00
  0.00000000E+00  0.00000000E+00  0.00000000E+00
  0.00000000E+00  0.00000000E+00  0.00000000E+00
  0.00000000E+00  0.00000000E+00  0.00000000E+00
