Potassium tetrafluoroferrate(III)       
   1.00000000000000     
     7.9265917679411109   -0.0035823489054079   -0.2102372495413920
     0.0029993595946985    5.9558240041933859   -0.0136445396138171
    -1.7441567450505493    0.0155265001185570    7.6847945412327832
   K    Fe   F 
     4     4    16
Direct
  0.3430053092974390  0.7592991162801539  0.0869505871832033
  0.6578173988769578  0.2421494959637727  0.9133570920770993
  0.6572941369491048  0.2598446545657609  0.4130948381890391
  0.3411426227947771  0.7412723777233623  0.5866114058196672
  0.1685637574627776  0.2528833722900075  0.2928727321171820
  0.8314215058661816  0.7468158985079540  0.7071747038135996
  0.8312770889637520  0.7532301721875925  0.2071457202468565
  0.1687353760149293  0.2465438521391050  0.7929020365252626
  0.1515835823254363  0.2304288397067253  0.0387165724713086
  0.8485576973229030  0.7687015016801126  0.9614360255186725
  0.8484009369657031  0.7300722963269806  0.4611119704044029
  0.1515823370811518  0.2691857443007919  0.5388760664142325
  0.0053207045033830  0.5091086459200795  0.2403317225105184
  0.9933542159983801  0.4887745654944098  0.7593463159804301
  0.9944709701509495  0.0092038975535829  0.2595924607582418
  0.0071673122867537  0.9884471600859683  0.7406960486404799
  0.3460049747573564  0.4678808576535047  0.3308240357158567
  0.6529455073499832  0.5331666201742706  0.6689917031825487
  0.6538964735148625  0.9686464182712697  0.1692660047538510
  0.3471222347565757  0.0323725561970392  0.8308623581994681
  0.3411416047134281  0.0320120274104099  0.3435336498122581
  0.6602755590953322  0.9690857688603600  0.6566423910032952
  0.6585451068799060  0.5324555542483438  0.1562953208327897
  0.3403737276328229  0.4684186213341732  0.8433682302841774
 
  0.00000000E+00  0.00000000E+00  0.00000000E+00
  0.00000000E+00  0.00000000E+00  0.00000000E+00
  0.00000000E+00  0.00000000E+00  0.00000000E+00
  0.00000000E+00  0.00000000E+00  0.00000000E+00
  0.00000000E+00  0.00000000E+00  0.00000000E+00
  0.00000000E+00  0.00000000E+00  0.00000000E+00
  0.00000000E+00  0.00000000E+00  0.00000000E+00
  0.00000000E+00  0.00000000E+00  0.00000000E+00
  0.00000000E+00  0.00000000E+00  0.00000000E+00
  0.00000000E+00  0.00000000E+00  0.00000000E+00
  0.00000000E+00  0.00000000E+00  0.00000000E+00
  0.00000000E+00  0.00000000E+00  0.00000000E+00
  0.00000000E+00  0.00000000E+00  0.00000000E+00
  0.00000000E+00  0.00000000E+00  0.00000000E+00
  0.00000000E+00  0.00000000E+00  0.00000000E+00
  0.00000000E+00  0.00000000E+00  0.00000000E+00
  0.00000000E+00  0.00000000E+00  0.00000000E+00
  0.00000000E+00  0.00000000E+00  0.00000000E+00
  0.00000000E+00  0.00000000E+00  0.00000000E+00
  0.00000000E+00  0.00000000E+00  0.00000000E+00
  0.00000000E+00  0.00000000E+00  0.00000000E+00
  0.00000000E+00  0.00000000E+00  0.00000000E+00
  0.00000000E+00  0.00000000E+00  0.00000000E+00
  0.00000000E+00  0.00000000E+00  0.00000000E+00
