Potassium tetrafluoroferrate(III)       
   1.00000000000000     
     7.5678847640225095   -0.0044337102348700    0.0985975005541877
     0.0014315852723208    5.6070314082717614   -0.0115447710614484
    -1.3717360474218523    0.0176366298089197    7.5293837310509932
   K    Fe   F 
     4     4    16
Direct
  0.3314995563431871  0.7775232535257792  0.0871401048358814
  0.6699679159384323  0.2247346689376036  0.9152533745843957
  0.6648870842023915  0.2744665296307096  0.4138101693567522
  0.3359808882681837  0.7235500316171068  0.5860522316581041
  0.1610563979028637  0.2638221089333728  0.2934463751374304
  0.8378241198517551  0.7328482830423877  0.7055350349915233
  0.8376067104733339  0.7662104574222351  0.2057281805914934
  0.1643955021325867  0.2356979989877755  0.7930106382281551
  0.1485467183978862  0.1798066762013248  0.0474693057846108
  0.8483838195497474  0.8172740895462786  0.9545453465228850
  0.8465643756591861  0.6818297696100240  0.4561598738661564
  0.1491777248611910  0.3237934161186262  0.5372593587985528
  0.0365359381906457  0.5571990230783235  0.2157699059097010
  0.9652239390736684  0.4450190808657424  0.7841670310484219
  0.9614445871973041  0.0537084697081968  0.2872693120637833
  0.0399400949490758  0.9441577897008847  0.7165064970825354
  0.3591558317149910  0.4562694355309934  0.3147737431385012
  0.6398599141465167  0.5400684395417007  0.6858652952263713
  0.6405983564793116  0.9578173280356864  0.1837776504862964
  0.3602070586187877  0.0453003860930828  0.8149260472930004
  0.3156791486756294  0.0186926969149677  0.3552202168180908
  0.6855276987484626 -0.0222715240808675  0.6453674864394181
  0.6837537005455669  0.5217947161508893  0.1448630858231135
  0.3161830596401480  0.4806868897629063  0.8560837267693018
 
  0.00000000E+00  0.00000000E+00  0.00000000E+00
  0.00000000E+00  0.00000000E+00  0.00000000E+00
  0.00000000E+00  0.00000000E+00  0.00000000E+00
  0.00000000E+00  0.00000000E+00  0.00000000E+00
  0.00000000E+00  0.00000000E+00  0.00000000E+00
  0.00000000E+00  0.00000000E+00  0.00000000E+00
  0.00000000E+00  0.00000000E+00  0.00000000E+00
  0.00000000E+00  0.00000000E+00  0.00000000E+00
  0.00000000E+00  0.00000000E+00  0.00000000E+00
  0.00000000E+00  0.00000000E+00  0.00000000E+00
  0.00000000E+00  0.00000000E+00  0.00000000E+00
  0.00000000E+00  0.00000000E+00  0.00000000E+00
  0.00000000E+00  0.00000000E+00  0.00000000E+00
  0.00000000E+00  0.00000000E+00  0.00000000E+00
  0.00000000E+00  0.00000000E+00  0.00000000E+00
  0.00000000E+00  0.00000000E+00  0.00000000E+00
  0.00000000E+00  0.00000000E+00  0.00000000E+00
  0.00000000E+00  0.00000000E+00  0.00000000E+00
  0.00000000E+00  0.00000000E+00  0.00000000E+00
  0.00000000E+00  0.00000000E+00  0.00000000E+00
  0.00000000E+00  0.00000000E+00  0.00000000E+00
  0.00000000E+00  0.00000000E+00  0.00000000E+00
  0.00000000E+00  0.00000000E+00  0.00000000E+00
  0.00000000E+00  0.00000000E+00  0.00000000E+00
