Fe12 K3 F36                             
   1.00000000000000     
     7.4265190130420091   -0.0056201997552227    0.0408950101053849
    -0.0343581587746657   12.6143400082771553   -0.0512474643846069
     0.0355654865847651   -0.0343473595436990    7.4429976065946892
   Fe   K    F 
    12     3    36
Direct
  0.2524294170278548  0.2496942431855972  0.9991222064157889
  0.7477446504758978  0.7499487902155634  0.0021150902014120
  0.7488426522293056  0.7500598225552955  0.5018529006268171
  0.2522825836308615  0.2508816795721330  0.5011016576211980
  0.7514170179310895  0.2485083361792648  0.5027994931223294
  0.2491047402334460  0.7518916493475369  0.5019106602686828
  0.2470303182928169  0.7522026643298837  0.0032730804685548
  0.7519103847527686  0.2473693707433714  0.0013318648429248
  0.9993525184102463  0.4990457113771577  0.9994862763589850
  0.9993671629750904  0.5001300457715677  0.5016179773013290
  0.5002050221943118  0.9998645499288845 -0.0000025487293627
  0.5007416300480040  0.0001551058550446  0.4993562986727560
  0.9925459246269756  0.9992641555360593  0.2513841737959516
  0.0100617296086594  0.0033755424189206  0.7525694834186196
  0.4876204604268825  0.5094107623811638  0.1702887681042111
  0.0031539978955686  0.2215778793682889  0.5557605741342977
  0.9981265836226788  0.7788970651373182  0.4448981430877176
  0.9831644460448177  0.8000970659036983  0.0567607255338664
  0.0159615916086999  0.1997921585441383  0.9489741076343919
  0.4995837458165862  0.7244231234046754  0.5543073096853619
  0.5016075694812261  0.2779444170892058  0.4470714938231941
  0.4886678656020452  0.2922500323946468  0.0584749995188675
  0.5105729437879357  0.7067080224830430  0.9543520736189667
  0.2093361175722949  0.2104855539054805  0.2514150785909658
  0.7916140500957688  0.7891977474095283  0.7513450835101728
  0.8022019501893329  0.2114926730690239  0.2575370086097014
  0.1968595827380475  0.7884762526009976  0.7466082476271252
  0.7083222110890234  0.7064564686858397  0.2536757365678701
  0.2886402102062884  0.2894301272327414  0.7494579229652222
  0.2979508374641315  0.7116691390503482  0.2583499195815359
  0.7071160202171090  0.2823364070188238  0.7467534103525297
  0.1762534034819256  0.3920851710230868  0.0578591636900111
  0.8266124167883940  0.6080062757926336  0.9515692150928463
  0.8142375253466304  0.6044692544086622  0.5509411180450396
  0.1903261342439788  0.3974616163180792  0.4461436244505887
  0.8147212584108952  0.3964005102985135  0.4523830898992919
  0.1856382200988611  0.6036097444812873  0.5482607928651095
  0.1956145483785851  0.5924604824770228  0.9630558487758446
  0.8049363855984186  0.4066589392767423  0.0513992603751345
  0.6703434170603936  0.8908880610383569  0.0639013649517104
  0.3270639861406276  0.1078781303084476  0.9365320836023586
  0.2883192153553761  0.1048967063167252  0.5523165583002595
  0.7114478452407239  0.8946669871786719  0.4471995774247579
  0.2827158997524279  0.8988295773811861  0.4513931532913076
  0.7171349049028645  0.1006631515262002  0.5481886475950817
  0.7091827705026941  0.0859918795583235  0.9562323565830967
  0.2909977812303124  0.9134319605341462  0.0468652827029452
  0.9998856690113446  0.5410253538672374  0.2538052741242129
  0.0008468106367761  0.4570984542262244  0.7484693633648496
  0.4979922225172773  0.0460296280794785  0.2453646099679729
  0.5021937090057190  0.9538115562137293  0.7541704715656101
 
  0.00000000E+00  0.00000000E+00  0.00000000E+00
  0.00000000E+00  0.00000000E+00  0.00000000E+00
  0.00000000E+00  0.00000000E+00  0.00000000E+00
  0.00000000E+00  0.00000000E+00  0.00000000E+00
  0.00000000E+00  0.00000000E+00  0.00000000E+00
  0.00000000E+00  0.00000000E+00  0.00000000E+00
  0.00000000E+00  0.00000000E+00  0.00000000E+00
  0.00000000E+00  0.00000000E+00  0.00000000E+00
  0.00000000E+00  0.00000000E+00  0.00000000E+00
  0.00000000E+00  0.00000000E+00  0.00000000E+00
  0.00000000E+00  0.00000000E+00  0.00000000E+00
  0.00000000E+00  0.00000000E+00  0.00000000E+00
  0.00000000E+00  0.00000000E+00  0.00000000E+00
  0.00000000E+00  0.00000000E+00  0.00000000E+00
  0.00000000E+00  0.00000000E+00  0.00000000E+00
  0.00000000E+00  0.00000000E+00  0.00000000E+00
  0.00000000E+00  0.00000000E+00  0.00000000E+00
  0.00000000E+00  0.00000000E+00  0.00000000E+00
  0.00000000E+00  0.00000000E+00  0.00000000E+00
  0.00000000E+00  0.00000000E+00  0.00000000E+00
  0.00000000E+00  0.00000000E+00  0.00000000E+00
  0.00000000E+00  0.00000000E+00  0.00000000E+00
  0.00000000E+00  0.00000000E+00  0.00000000E+00
  0.00000000E+00  0.00000000E+00  0.00000000E+00
  0.00000000E+00  0.00000000E+00  0.00000000E+00
  0.00000000E+00  0.00000000E+00  0.00000000E+00
  0.00000000E+00  0.00000000E+00  0.00000000E+00
  0.00000000E+00  0.00000000E+00  0.00000000E+00
  0.00000000E+00  0.00000000E+00  0.00000000E+00
  0.00000000E+00  0.00000000E+00  0.00000000E+00
  0.00000000E+00  0.00000000E+00  0.00000000E+00
  0.00000000E+00  0.00000000E+00  0.00000000E+00
  0.00000000E+00  0.00000000E+00  0.00000000E+00
  0.00000000E+00  0.00000000E+00  0.00000000E+00
  0.00000000E+00  0.00000000E+00  0.00000000E+00
  0.00000000E+00  0.00000000E+00  0.00000000E+00
  0.00000000E+00  0.00000000E+00  0.00000000E+00
  0.00000000E+00  0.00000000E+00  0.00000000E+00
  0.00000000E+00  0.00000000E+00  0.00000000E+00
  0.00000000E+00  0.00000000E+00  0.00000000E+00
  0.00000000E+00  0.00000000E+00  0.00000000E+00
  0.00000000E+00  0.00000000E+00  0.00000000E+00
  0.00000000E+00  0.00000000E+00  0.00000000E+00
  0.00000000E+00  0.00000000E+00  0.00000000E+00
  0.00000000E+00  0.00000000E+00  0.00000000E+00
  0.00000000E+00  0.00000000E+00  0.00000000E+00
  0.00000000E+00  0.00000000E+00  0.00000000E+00
  0.00000000E+00  0.00000000E+00  0.00000000E+00
  0.00000000E+00  0.00000000E+00  0.00000000E+00
  0.00000000E+00  0.00000000E+00  0.00000000E+00
  0.00000000E+00  0.00000000E+00  0.00000000E+00
