Iron fluoride                           
   1.00000000000000     
    18.0000000000000000    0.0000000000000000    0.0000000000000000
     0.0000000000000000   19.0000000000000000    0.0000000000000000
     0.0000000000000000    0.0000000000000000   20.0000000000000000
   F 
     2
Direct
  0.0000000000258353  0.0000000000340279  0.0006439690703317
  0.9999999999741647  0.9999999999659721  0.0718560289296661
 
  0.00000000E+00  0.00000000E+00  0.00000000E+00
  0.00000000E+00  0.00000000E+00  0.00000000E+00
