K4 Fe4 F14                              
   1.00000000000000     
    -7.6319842021041460    0.0023890259186231   -0.0128591828496420
    -3.8065338385889258   -5.3947490274495875   -3.9784778429666030
    -3.8194529492845981   -5.3883431459893281    3.9761022935112194
   F    Fe   K 
    14     4     4
Direct
  0.0011226980489312  0.0720128656361538  0.9252778268492960
  0.4982278239939291  0.9281300432847246  0.0747946328443660
  0.1592951229322708  0.3810617315253921  0.3000264326995747
  0.8422463628580275  0.6992598793260356  0.6180054791815266
  0.6587720351891733  0.3008948457895286  0.3819763888831247
  0.3411338947411764  0.6189050327583345  0.6999070409213672
  0.9185779095063609  0.7079045742094578  0.0437570845762778
  0.6713271777882781  0.9600063700170125  0.2907500409124921
  0.8284855063509866  0.0400172437244493  0.7092290887557766
  0.3284712775514507  0.7081183767120223  0.0437529617243868
  0.1716197280470908  0.2919838502976262  0.9557462831123118
  0.4214698482551853  0.0393223042895556  0.7090314546506704
  0.0784679962239920  0.9607406177623190  0.2908687304108710
  0.5811466931468559  0.2918716743728993  0.9569236105240648
  0.7495108744822261  0.9997872973524338  0.0002103420663460
  0.2495444888201206  0.0001118133647964  0.9998120257777998
  0.2500242861460578  0.5000524048199821  0.9999535614040553
  0.7500163938847422  0.0000798466008334  0.4999209132757727
  0.7502071292370047  0.4999506314491882  0.5002284904463963
  0.2504660683699385  0.4998290270985848  0.4998576809406288
  0.2498318476464121  0.9999430301065217  0.5000005981492279
  0.7500348367797685  0.5000165395021270  0.9999693318936380
 
  0.00000000E+00  0.00000000E+00  0.00000000E+00
  0.00000000E+00  0.00000000E+00  0.00000000E+00
  0.00000000E+00  0.00000000E+00  0.00000000E+00
  0.00000000E+00  0.00000000E+00  0.00000000E+00
  0.00000000E+00  0.00000000E+00  0.00000000E+00
  0.00000000E+00  0.00000000E+00  0.00000000E+00
  0.00000000E+00  0.00000000E+00  0.00000000E+00
  0.00000000E+00  0.00000000E+00  0.00000000E+00
  0.00000000E+00  0.00000000E+00  0.00000000E+00
  0.00000000E+00  0.00000000E+00  0.00000000E+00
  0.00000000E+00  0.00000000E+00  0.00000000E+00
  0.00000000E+00  0.00000000E+00  0.00000000E+00
  0.00000000E+00  0.00000000E+00  0.00000000E+00
  0.00000000E+00  0.00000000E+00  0.00000000E+00
  0.00000000E+00  0.00000000E+00  0.00000000E+00
  0.00000000E+00  0.00000000E+00  0.00000000E+00
  0.00000000E+00  0.00000000E+00  0.00000000E+00
  0.00000000E+00  0.00000000E+00  0.00000000E+00
  0.00000000E+00  0.00000000E+00  0.00000000E+00
  0.00000000E+00  0.00000000E+00  0.00000000E+00
  0.00000000E+00  0.00000000E+00  0.00000000E+00
  0.00000000E+00  0.00000000E+00  0.00000000E+00
