K4 Fe4 F14                             
   1.00000000000000     
    -7.1537372745626868   -0.0000821739410580    0.0002521827229347
    -3.5768001801355118   -4.9585734156389387   -3.5062070938000067
    -3.5770529614864879   -4.9573721231040411    3.5047570636789245
   F    Fe   K
    14     4     4
Direct
 -0.0000202604439818  0.0995632109500447  0.9002953785812252
  0.5000197919072566  0.9004368638227082  0.0997046136554809
  0.1492594609686265  0.3620196253693930  0.3394165286314267
  0.8506254055570512  0.6606686697838653  0.6380159409380070
  0.6493747342784743  0.3393312009655442  0.3619842152739212
  0.3507407078158261  0.6379803165993626  0.6605835269517303
  0.9130506208384837  0.6666686391287452  0.0698200757210826
  0.6495531578112114  0.9303022429168263  0.3332495547226489
  0.8504472240949987  0.0696976831109776  0.6667502839430323
  0.3505216246054205  0.6665167120686792  0.0698723651750138
  0.1494783782241299  0.3334836497442676  0.9301272457039390
  0.4131392639062715  0.0697535260818830  0.6666055185114717
  0.0868608873382958  0.9302462543419279  0.3333945682016893
  0.5869493846877991  0.3333313352757010  0.9301799664522006
  0.7499997562146292  0.0000000793522818 -0.0000000635308415
  0.2499995532352918  0.0000002758690572  0.0000001023038579
  0.2499999942955059  0.4999999894281236  0.0000000990089524
  0.7500000616584884 -0.0000000767306796  0.5000001192995315
  0.7500000845183846  0.5000000389089821  0.4999999028034054
  0.2499999980840955  0.4999999179908572  0.5000000814507147
  0.2500001440228538 -0.0000000870248065  0.4999999803300748
  0.7500000263808732  0.4999999320462517 -0.0000000041285719
 
  0.00000000E+00  0.00000000E+00  0.00000000E+00
  0.00000000E+00  0.00000000E+00  0.00000000E+00
  0.00000000E+00  0.00000000E+00  0.00000000E+00
  0.00000000E+00  0.00000000E+00  0.00000000E+00
  0.00000000E+00  0.00000000E+00  0.00000000E+00
  0.00000000E+00  0.00000000E+00  0.00000000E+00
  0.00000000E+00  0.00000000E+00  0.00000000E+00
  0.00000000E+00  0.00000000E+00  0.00000000E+00
  0.00000000E+00  0.00000000E+00  0.00000000E+00
  0.00000000E+00  0.00000000E+00  0.00000000E+00
  0.00000000E+00  0.00000000E+00  0.00000000E+00
  0.00000000E+00  0.00000000E+00  0.00000000E+00
  0.00000000E+00  0.00000000E+00  0.00000000E+00
  0.00000000E+00  0.00000000E+00  0.00000000E+00
  0.00000000E+00  0.00000000E+00  0.00000000E+00
  0.00000000E+00  0.00000000E+00  0.00000000E+00
  0.00000000E+00  0.00000000E+00  0.00000000E+00
  0.00000000E+00  0.00000000E+00  0.00000000E+00
  0.00000000E+00  0.00000000E+00  0.00000000E+00
  0.00000000E+00  0.00000000E+00  0.00000000E+00
  0.00000000E+00  0.00000000E+00  0.00000000E+00
  0.00000000E+00  0.00000000E+00  0.00000000E+00
