Sodium iron iron(III) fluoride          
   1.00000000000000     
     6.9113740269329282   -0.0338731991623396   -0.0015716906150798
    -0.0361950208930921    7.1204969497001898    0.0015176564472304
     0.0004762322180762   -0.0013397010635716    9.5672078591840073
   Na   Fe   F 
     4     8    24
Direct
  0.9157634201146294  0.2502799301961076  0.6231925791120787
  0.0856194808828903  0.7429737557961431  0.3823968866230558
  0.5858349235421159  0.7428710368806151  0.1174918585225200
  0.4156982527885162  0.2514387492431851  0.8761924314439540
  0.0018794825101693  0.0005811678902106  0.9989209357809088
  0.5018691129351467  0.0004677271970408  0.5011130625889137
  0.0010578210472261  0.4991618226994916  0.9985769004245739
  0.5009036310230712  0.4990635909892021  0.5014947246971104
  0.1481538758557832  0.2485625817304253  0.2986253205282168
  0.8470860473151092  0.7515168924730773  0.7004710291875398
  0.3470037944233511  0.7515650495659614  0.7994850069821169
  0.6481732259054027  0.2485355884376261  0.2014496944026334
  0.8704387152603488  0.2491045171915403  0.3307181524384575
  0.1260082579322059  0.7522036571532666  0.6704733867780135
  0.6259844698232513  0.7518057355363794  0.8293050554966470
  0.3703972593443723  0.2489498639869936  0.1694516468091720
  0.0989554411720164  0.2521091140407989  0.9369832283937214
  0.9030385852488720  0.7483523140261781  0.0552668025246703
  0.4026676047634226  0.7482508201665112  0.4447304917947150
  0.5987973889969709  0.2520372567941322  0.5631005106081517
  0.0888299536293644  0.4813022993803244  0.2023586836613092
  0.9075970505943900  0.5196811968001782  0.7967566878441517
  0.4071460023731959  0.5195032070229715  0.7032697725775421
  0.5886162177457948  0.4811134268353285  0.2976876863994562
  0.9114886365982855  0.9832805848361517  0.7973965970147034
  0.0853668360292090  0.0162996354575355  0.2025417233212394
  0.5853952772514290  0.0162491503549020  0.2976206997039199
  0.4117612541180264  0.9832963237931907  0.7025831413650323
  0.7107811327374520  0.4230013466591913  0.0527781923255048
  0.2931957517333501  0.5784176798286467  0.9506601501095773
  0.7928945294781116  0.5785233828112979  0.5492739306906884
  0.2105692287626937  0.4229382517238207  0.4474012753556096
  0.2909251190858271  0.9284466056693006  0.9472792527818612
  0.7146671548941086  0.0747720930582076  0.0549081300223548
  0.2142119023577749  0.0748367343385254  0.4454397800270371
  0.7912232037261546  0.9285069094355052  0.5526045456628594
 
  0.00000000E+00  0.00000000E+00  0.00000000E+00
  0.00000000E+00  0.00000000E+00  0.00000000E+00
  0.00000000E+00  0.00000000E+00  0.00000000E+00
  0.00000000E+00  0.00000000E+00  0.00000000E+00
  0.00000000E+00  0.00000000E+00  0.00000000E+00
  0.00000000E+00  0.00000000E+00  0.00000000E+00
  0.00000000E+00  0.00000000E+00  0.00000000E+00
  0.00000000E+00  0.00000000E+00  0.00000000E+00
  0.00000000E+00  0.00000000E+00  0.00000000E+00
  0.00000000E+00  0.00000000E+00  0.00000000E+00
  0.00000000E+00  0.00000000E+00  0.00000000E+00
  0.00000000E+00  0.00000000E+00  0.00000000E+00
  0.00000000E+00  0.00000000E+00  0.00000000E+00
  0.00000000E+00  0.00000000E+00  0.00000000E+00
  0.00000000E+00  0.00000000E+00  0.00000000E+00
  0.00000000E+00  0.00000000E+00  0.00000000E+00
  0.00000000E+00  0.00000000E+00  0.00000000E+00
  0.00000000E+00  0.00000000E+00  0.00000000E+00
  0.00000000E+00  0.00000000E+00  0.00000000E+00
  0.00000000E+00  0.00000000E+00  0.00000000E+00
  0.00000000E+00  0.00000000E+00  0.00000000E+00
  0.00000000E+00  0.00000000E+00  0.00000000E+00
  0.00000000E+00  0.00000000E+00  0.00000000E+00
  0.00000000E+00  0.00000000E+00  0.00000000E+00
  0.00000000E+00  0.00000000E+00  0.00000000E+00
  0.00000000E+00  0.00000000E+00  0.00000000E+00
  0.00000000E+00  0.00000000E+00  0.00000000E+00
  0.00000000E+00  0.00000000E+00  0.00000000E+00
  0.00000000E+00  0.00000000E+00  0.00000000E+00
  0.00000000E+00  0.00000000E+00  0.00000000E+00
  0.00000000E+00  0.00000000E+00  0.00000000E+00
  0.00000000E+00  0.00000000E+00  0.00000000E+00
  0.00000000E+00  0.00000000E+00  0.00000000E+00
  0.00000000E+00  0.00000000E+00  0.00000000E+00
  0.00000000E+00  0.00000000E+00  0.00000000E+00
  0.00000000E+00  0.00000000E+00  0.00000000E+00
