Sodium iron iron(III) fluoride          
   1.00000000000000     
     6.2650230465718124   -0.0785070626334459    0.0026888259394283
    -0.0844358708611244    6.8582076535270051    0.0019191798496170
     0.0056017511671918   -0.0001940419440047    8.7601563529668365
   Na   Fe   F 
     4     8    24
Direct
  0.9964827313314919  0.2481594905040761  0.6339863394283798
  0.0784257548364455  0.7457009192996408  0.3848836495708949
  0.5745840817303128  0.7471749829241756  0.1149726256605398
  0.4951318685309917  0.2494860362477682  0.8666882236648807
  0.0100175941440511  0.0270945519789583 -0.0009608413122955
  0.5099573780249631  0.0276017638924352  0.5010802969117856
  0.0215943285674831  0.5017744311326374  0.9846680934170002
  0.5231990462500326  0.5007452546306030  0.5154468806163142
  0.1316706124113738  0.2518493892053309  0.2960474328170048
  0.8187375139132661  0.7416759422930609  0.6890612230059202
  0.3177208585940433  0.7427959667998284  0.8101187790224098
  0.6318510274312343  0.2516541448386052  0.2038369898826565
  0.8388596020565682  0.2443615281602550  0.3619223334960171
  0.1200972170835947  0.7436322022308263  0.6468844909418170
  0.6191455995783031  0.7443889481340539  0.8512303533649340
  0.3388499963771454  0.2434678131556177  0.1377777935469424
  0.1263538217858193  0.2599912643813018  0.8965701632348805
  0.9162132212759364  0.7552699972724182  0.0309602370589151
  0.4197964899400096  0.7551639676867310  0.4706626403385606
  0.6282846808635776  0.2594905659480832  0.6049999915307380
  0.0511048039978913  0.5026273431009106  0.2100415393139993
  0.8840819452548189  0.4915783320803084  0.7819945654726262
  0.3830425143340724  0.4915230220735025  0.7177366473546178
  0.5503778345835816  0.5028046826075689  0.2894666075126374
  0.9125082983309317  0.9925570540296222  0.7884148639274831
  0.0477661462591648  0.9911719093791647  0.2184274707292415
  0.5484385795867037  0.9914921339996345  0.2821994631613092
  0.4095382480651681  0.9950836234539564  0.7120882196008286
  0.7189183370106418  0.4260292177405852  0.0374859282893287
  0.3225196908803639  0.5699610150534865  0.9940801527890143
  0.8234295699404929  0.5702674591976242  0.5047862902176150
  0.2198776831366995  0.4257895388054828  0.4621571641746718
  0.2960276698777897  0.9292037234421034  0.9788687729312679
  0.7084715246099311  0.0739990308013976  0.0337575812215165
  0.2095178652219198  0.0739473314295273  0.4657558520755953
  0.7974059061832021  0.9304854220886817  0.5219011390299492
 
  0.00000000E+00  0.00000000E+00  0.00000000E+00
  0.00000000E+00  0.00000000E+00  0.00000000E+00
  0.00000000E+00  0.00000000E+00  0.00000000E+00
  0.00000000E+00  0.00000000E+00  0.00000000E+00
  0.00000000E+00  0.00000000E+00  0.00000000E+00
  0.00000000E+00  0.00000000E+00  0.00000000E+00
  0.00000000E+00  0.00000000E+00  0.00000000E+00
  0.00000000E+00  0.00000000E+00  0.00000000E+00
  0.00000000E+00  0.00000000E+00  0.00000000E+00
  0.00000000E+00  0.00000000E+00  0.00000000E+00
  0.00000000E+00  0.00000000E+00  0.00000000E+00
  0.00000000E+00  0.00000000E+00  0.00000000E+00
  0.00000000E+00  0.00000000E+00  0.00000000E+00
  0.00000000E+00  0.00000000E+00  0.00000000E+00
  0.00000000E+00  0.00000000E+00  0.00000000E+00
  0.00000000E+00  0.00000000E+00  0.00000000E+00
  0.00000000E+00  0.00000000E+00  0.00000000E+00
  0.00000000E+00  0.00000000E+00  0.00000000E+00
  0.00000000E+00  0.00000000E+00  0.00000000E+00
  0.00000000E+00  0.00000000E+00  0.00000000E+00
  0.00000000E+00  0.00000000E+00  0.00000000E+00
  0.00000000E+00  0.00000000E+00  0.00000000E+00
  0.00000000E+00  0.00000000E+00  0.00000000E+00
  0.00000000E+00  0.00000000E+00  0.00000000E+00
  0.00000000E+00  0.00000000E+00  0.00000000E+00
  0.00000000E+00  0.00000000E+00  0.00000000E+00
  0.00000000E+00  0.00000000E+00  0.00000000E+00
  0.00000000E+00  0.00000000E+00  0.00000000E+00
  0.00000000E+00  0.00000000E+00  0.00000000E+00
  0.00000000E+00  0.00000000E+00  0.00000000E+00
  0.00000000E+00  0.00000000E+00  0.00000000E+00
  0.00000000E+00  0.00000000E+00  0.00000000E+00
  0.00000000E+00  0.00000000E+00  0.00000000E+00
  0.00000000E+00  0.00000000E+00  0.00000000E+00
  0.00000000E+00  0.00000000E+00  0.00000000E+00
  0.00000000E+00  0.00000000E+00  0.00000000E+00
