Fe12 Na3 F36                            
   1.00000000000000     
     7.4197029661191785   -0.0333411311235161    0.0576730652313723
    -0.0477409339489549   12.7253621741626297   -0.0001387380877500
     0.0573261042686588   -0.0022840250489504    7.4425729925601596
   Fe   Na   F 
    12     3    36
Direct
  0.2484751640220182  0.2495158269825666  0.0001160746636444
  0.7476075797303707  0.7493603157726483  0.9989979178532451
  0.7503013097781377  0.7514029291041453  0.4991927406963228
  0.2511141373001564  0.2516872419846976  0.5016929363411791
  0.7465634615981216  0.2537151045753561  0.5009273785937083
  0.2529031522543903  0.7499473414288289  0.5021771477300945
  0.2522283776709529  0.7486975791031156  0.9970661012713293
  0.7475927823206803  0.2513993648547128  0.0024314112102601
  0.9980196965944899  0.5009624475108652  0.0022959418403730
  0.0009441862506065  0.5021147891192896  0.5058430279906929
  0.5016254246063596  0.9991995734158863  0.0002380968224003
  0.5008006623860766  0.9996995705099678  0.4989952693645279
  0.0555384188037351  0.9216692303345440  0.2508374911542788
  0.9368408779441921  0.0747826719681441  0.7467999252681992
  0.5295594031436295  0.4466404409814544  0.2088658133761641
  0.9983712441912047  0.2220490127402144  0.5585852797611039
  0.0016365630479456  0.7798112127766288  0.4396811175955690
  0.9870930229382253  0.7942377082768886  0.0573150514135321
  0.0104962847418903  0.2042683507424030  0.9415864480924228
  0.5017369756384227  0.7240263406044249  0.5527499728780256
  0.4989170289447529  0.2906236249666918  0.4405261190601450
  0.4849739720423827  0.2965220019201453  0.0588259309781805
  0.5121851513024609  0.7094498648224956  0.9476284000446284
  0.2080776261693131  0.2158772962778386  0.2527033353112813
  0.7937680840550740  0.7860274022549802  0.7476695802828388
  0.7950594463934237  0.2205284703071939  0.2575881070852404
  0.1999348718796981  0.7847802982433763  0.7436146810196362
  0.7094768941589678  0.7108828439195491  0.2522844086696452
  0.2890922226119628  0.2884583587299758  0.7495330308804498
  0.2933983437669454  0.7151655388511458  0.2566845203713441
  0.7049179245429826  0.2854203710276408  0.7462448926314664
  0.1701093370114535  0.3906122364350608  0.0558785543555373
  0.8270382422961831  0.6084259608525855  0.9521769832405766
  0.8174704189890534  0.6061953797459125  0.5481402329126368
  0.1865477502831681  0.3973444365361232  0.4503614235411675
  0.8098910799239292  0.4006776542235286  0.4522593368549721
  0.1879638241654433  0.6029636548358326  0.5495525419214502
  0.1922939909804526  0.5920808400561626  0.9579793261807836
  0.7955493311737598  0.4101379321216143  0.0588260348737251
  0.6771858122140060  0.8923887903836132  0.0538290324896948
  0.3269319369295403  0.1095205368204688  0.9464371835699552
  0.2947312827332453  0.1092859341600700  0.5526424518685857
  0.7137128208168804  0.8957162459855113  0.4455339014201130
  0.2883243818501313  0.8965524917608647  0.4445775594565902
  0.7047991230980344  0.1085771148119505  0.5546201689480412
  0.7024033182082832  0.0926012019041949  0.9459187889160035
  0.2977774292218101  0.9092924010005277  0.0551397431840002
  0.0004025581149705  0.5399556274285828  0.2561170791599494
  0.9939723611605018  0.4563618959087563  0.7512794833546010
  0.5030811071094803  0.0458153547961970  0.2444827610895146
  0.5005636628901158  0.9559711891246323  0.7545493364102143
 
  0.00000000E+00  0.00000000E+00  0.00000000E+00
  0.00000000E+00  0.00000000E+00  0.00000000E+00
  0.00000000E+00  0.00000000E+00  0.00000000E+00
  0.00000000E+00  0.00000000E+00  0.00000000E+00
  0.00000000E+00  0.00000000E+00  0.00000000E+00
  0.00000000E+00  0.00000000E+00  0.00000000E+00
  0.00000000E+00  0.00000000E+00  0.00000000E+00
  0.00000000E+00  0.00000000E+00  0.00000000E+00
  0.00000000E+00  0.00000000E+00  0.00000000E+00
  0.00000000E+00  0.00000000E+00  0.00000000E+00
  0.00000000E+00  0.00000000E+00  0.00000000E+00
  0.00000000E+00  0.00000000E+00  0.00000000E+00
  0.00000000E+00  0.00000000E+00  0.00000000E+00
  0.00000000E+00  0.00000000E+00  0.00000000E+00
  0.00000000E+00  0.00000000E+00  0.00000000E+00
  0.00000000E+00  0.00000000E+00  0.00000000E+00
  0.00000000E+00  0.00000000E+00  0.00000000E+00
  0.00000000E+00  0.00000000E+00  0.00000000E+00
  0.00000000E+00  0.00000000E+00  0.00000000E+00
  0.00000000E+00  0.00000000E+00  0.00000000E+00
  0.00000000E+00  0.00000000E+00  0.00000000E+00
  0.00000000E+00  0.00000000E+00  0.00000000E+00
  0.00000000E+00  0.00000000E+00  0.00000000E+00
  0.00000000E+00  0.00000000E+00  0.00000000E+00
  0.00000000E+00  0.00000000E+00  0.00000000E+00
  0.00000000E+00  0.00000000E+00  0.00000000E+00
  0.00000000E+00  0.00000000E+00  0.00000000E+00
  0.00000000E+00  0.00000000E+00  0.00000000E+00
  0.00000000E+00  0.00000000E+00  0.00000000E+00
  0.00000000E+00  0.00000000E+00  0.00000000E+00
  0.00000000E+00  0.00000000E+00  0.00000000E+00
  0.00000000E+00  0.00000000E+00  0.00000000E+00
  0.00000000E+00  0.00000000E+00  0.00000000E+00
  0.00000000E+00  0.00000000E+00  0.00000000E+00
  0.00000000E+00  0.00000000E+00  0.00000000E+00
  0.00000000E+00  0.00000000E+00  0.00000000E+00
  0.00000000E+00  0.00000000E+00  0.00000000E+00
  0.00000000E+00  0.00000000E+00  0.00000000E+00
  0.00000000E+00  0.00000000E+00  0.00000000E+00
  0.00000000E+00  0.00000000E+00  0.00000000E+00
  0.00000000E+00  0.00000000E+00  0.00000000E+00
  0.00000000E+00  0.00000000E+00  0.00000000E+00
  0.00000000E+00  0.00000000E+00  0.00000000E+00
  0.00000000E+00  0.00000000E+00  0.00000000E+00
  0.00000000E+00  0.00000000E+00  0.00000000E+00
  0.00000000E+00  0.00000000E+00  0.00000000E+00
  0.00000000E+00  0.00000000E+00  0.00000000E+00
  0.00000000E+00  0.00000000E+00  0.00000000E+00
  0.00000000E+00  0.00000000E+00  0.00000000E+00
  0.00000000E+00  0.00000000E+00  0.00000000E+00
  0.00000000E+00  0.00000000E+00  0.00000000E+00
