Fe6 H4 N2 F18
1.0
-3.711500 -6.365000 0.000000
-3.711500 6.365000 0.000000
0.000000 0.000000 -7.526000
Fe H N F
6 4 2 18
direct
0.500000 0.000000 0.000000 Fe
0.000000 0.500000 0.000000 Fe
0.500000 0.500000 0.500000 Fe
0.500000 0.500000 0.000000 Fe
0.000000 0.500000 0.500000 Fe
0.500000 0.000000 0.500000 Fe
0.027893 0.972107 0.866450 H
0.972749 0.027251 0.633929 H
0.139468 0.097285 0.250000 H
0.902715 0.860532 0.250000 H
0.000600 0.999400 0.750000 N
0.999400 0.000600 0.250000 N
0.784400 0.215600 0.051100 F
0.215600 0.784400 0.948900 F
0.416200 0.208600 0.956600 F
0.208600 0.416200 0.043400 F
0.583800 0.791400 0.043400 F
0.791400 0.583800 0.956600 F
0.471400 0.528600 0.750000 F
0.528600 0.471400 0.250000 F
0.784400 0.215600 0.448900 F
0.215600 0.784400 0.551100 F
0.416200 0.208600 0.543400 F
0.208600 0.416200 0.456600 F
0.791400 0.583800 0.543400 F
0.583800 0.791400 0.456600 F
0.572300 0.007500 0.750000 F
0.427700 0.992500 0.250000 F
0.992500 0.427700 0.750000 F
0.007500 0.572300 0.250000 F
