Iron(III) fluoride hydrate (1/3/.33)
1.0
        7.4229998589         0.0000000000         0.0000000000
        0.0000000000        12.7299995422         0.0000000000
        0.0000000000         0.0000000000         7.5260000229
   Fe    F    O
   12   36    4
Direct
     0.000000000         0.500000000         0.000000000
     0.000000000         0.500000000         0.500000000
     0.500000000         0.000000000         0.000000000
     0.500000000         0.000000000         0.500000000
     0.250000000         0.250000000         0.000000000
     0.750000000         0.750000000         0.000000000
     0.750000000         0.750000000         0.500000000
     0.250000000         0.250000000         0.500000000
     0.750000000         0.250000000         0.500000000
     0.250000000         0.750000000         0.500000000
     0.250000000         0.750000000         0.000000000
     0.750000000         0.250000000         0.000000000
     0.000000000         0.215599999         0.551100016
     0.000000000         0.784399986         0.448899984
     0.000000000         0.784399986         0.051100016
     0.000000000         0.215599999         0.948899984
     0.500000000         0.715600014         0.551100016
     0.500000000         0.284399986         0.448899984
     0.500000000         0.284399986         0.051100016
     0.500000000         0.715600014         0.948899984
     0.187600002         0.396200001         0.043400001
     0.812399983         0.603799999         0.956600010
     0.812399983         0.603799999         0.543399990
     0.187600002         0.396200001         0.456600010
     0.812399983         0.396200001         0.456600010
     0.187600002         0.603799999         0.543399990
     0.187600002         0.603799999         0.956600010
     0.812399983         0.396200001         0.043400001
     0.687600017         0.896200001         0.043400001
     0.312399983         0.103799999         0.956600010
     0.312399983         0.103799999         0.543399990
     0.687600017         0.896200001         0.456600010
     0.312399983         0.896200001         0.456600010
     0.687600017         0.103799999         0.543399990
     0.687600017         0.103799999         0.956600010
     0.312399983         0.896200001         0.043400001
     0.000000000         0.528599977         0.250000000
     0.000000000         0.471400023         0.750000000
     0.500000000         0.028599977         0.250000000
     0.500000000         0.971400023         0.750000000
     0.210099995         0.217600003         0.250000000
     0.789900005         0.782400012         0.750000000
     0.789900005         0.217600003         0.250000000
     0.210099995         0.782400012         0.750000000
     0.710099995         0.717599988         0.250000000
     0.289900005         0.282400012         0.750000000
     0.289900005         0.717599988         0.250000000
     0.710099995         0.282400012         0.750000000
     0.000000000         0.999400020         0.250000000
     0.000000000         0.000600000         0.750000000
     0.500000000         0.499399990         0.250000000
     0.500000000         0.500599980         0.750000000
