Fe6 H4 O2 F18                           
   1.00000000000000     
    -3.6890242377150679   -6.3521026657229518   -0.0151204915428730
    -3.6994764124996706    6.3510055978588795    0.0056294541538037
    -0.0001203274947118   -0.0046133832875931   -7.4867429303188864
   Fe   H    O    F 
     6     4     2    18
Direct
  0.5000588480722072  0.9997007127348212  0.9954249959151156
  0.0002644424975671  0.4998844369961475  0.9951740759320558
  0.4980343803578648  0.4955677143844426  0.4961991398026271
  0.4994777867474198  0.4990027288536041  0.9951015289610794
  0.0006826277071710  0.4977118725877432  0.4966443386510306
  0.5016225738172508  0.9975104942060611  0.4950729169452615
  0.0171675890050906  0.0111110076993910  0.9185809613879528
  0.8803454311950816  0.0090978612572741  0.7628077109678628
  0.0330867099664403  0.1044758509570585  0.2478226361456990
  0.9664201439391960  0.8702013260340706  0.2468622863332399
  0.0187681532951629  0.0336716921969611  0.7903419369079714
  0.0400352759110874  0.9974573853727122  0.1781133408057016
  0.7855287134154807  0.2160652512380281  0.0404687073248269
  0.2200034372307513  0.7807952945081240  0.9500897038030516
  0.4315369783100849  0.2151857851414007  0.9538790859157658
  0.2124499410670353  0.4239304222382785  0.0435905458030206
  0.5798983771148798  0.7884933508756262  0.0306324780510536
  0.7900804877280265  0.5798634273060372  0.9570080369272347
  0.4632145254421260  0.5333854864504062  0.7446873127287716
  0.5380036691436914  0.4680934923396833  0.2452415291368908
  0.7887067312168057  0.2117114458984446  0.4507482775017095
  0.2204052626871587  0.7786627246967015  0.5375703486274901
  0.4279349960358445  0.2106576186448734  0.5321427675562589
  0.2089424080023150  0.4147345791463835  0.4483001748056168
  0.7895447143908072  0.5775494265047172  0.5320388636613274
  0.5817143488473633  0.7863242133881343  0.4572231977672558
  0.5699341716906048  0.0053827997177081  0.7446571463030480
  0.4440880712185376  0.9903613866339711  0.2457856621175623
  0.9926960948001948  0.4376853032064147  0.7453911575457681
  0.0017862092330390  0.5634817423517120  0.2464157023012135
 
  0.00000000E+00  0.00000000E+00  0.00000000E+00
  0.00000000E+00  0.00000000E+00  0.00000000E+00
  0.00000000E+00  0.00000000E+00  0.00000000E+00
  0.00000000E+00  0.00000000E+00  0.00000000E+00
  0.00000000E+00  0.00000000E+00  0.00000000E+00
  0.00000000E+00  0.00000000E+00  0.00000000E+00
  0.00000000E+00  0.00000000E+00  0.00000000E+00
  0.00000000E+00  0.00000000E+00  0.00000000E+00
  0.00000000E+00  0.00000000E+00  0.00000000E+00
  0.00000000E+00  0.00000000E+00  0.00000000E+00
  0.00000000E+00  0.00000000E+00  0.00000000E+00
  0.00000000E+00  0.00000000E+00  0.00000000E+00
  0.00000000E+00  0.00000000E+00  0.00000000E+00
  0.00000000E+00  0.00000000E+00  0.00000000E+00
  0.00000000E+00  0.00000000E+00  0.00000000E+00
  0.00000000E+00  0.00000000E+00  0.00000000E+00
  0.00000000E+00  0.00000000E+00  0.00000000E+00
  0.00000000E+00  0.00000000E+00  0.00000000E+00
  0.00000000E+00  0.00000000E+00  0.00000000E+00
  0.00000000E+00  0.00000000E+00  0.00000000E+00
  0.00000000E+00  0.00000000E+00  0.00000000E+00
  0.00000000E+00  0.00000000E+00  0.00000000E+00
  0.00000000E+00  0.00000000E+00  0.00000000E+00
  0.00000000E+00  0.00000000E+00  0.00000000E+00
  0.00000000E+00  0.00000000E+00  0.00000000E+00
  0.00000000E+00  0.00000000E+00  0.00000000E+00
  0.00000000E+00  0.00000000E+00  0.00000000E+00
  0.00000000E+00  0.00000000E+00  0.00000000E+00
  0.00000000E+00  0.00000000E+00  0.00000000E+00
  0.00000000E+00  0.00000000E+00  0.00000000E+00
