Fe6 H4 O2 F18                           
   1.00000000000000     
    -3.7115000000000000   -6.3650000000000002    0.0000000000000000
    -3.7115000000000000    6.3650000000000002    0.0000000000000000
     0.0000000000000000    0.0000000000000000   -7.5259999999999998
   Fe   H    O    F 
     6     4     2    18
Direct
  0.5000000000000000  0.0000000000000000  0.0000000000000000   
  0.0000000000000000  0.5000000000000000  0.0000000000000000   
  0.5000000000000000  0.5000000000000000  0.5000000000000000   
  0.5000000000000000  0.5000000000000000  0.0000000000000000   
  0.0000000000000000  0.5000000000000000  0.5000000000000000   
  0.5000000000000000  0.0000000000000000  0.5000000000000000   
 -0.0393598658721803  0.0401160712950324  0.8586050860346213   
  0.9508168761049779  0.0496785117486399  0.6537494737748351  
  0.1482916111439322  0.0563928602656464  0.2559017524045561   
  0.9426844787095363  0.8515693902575981  0.2557602544194496  
  0.0005999999999986  0.9994000000000014  0.7500000000000000   
  0.9994000000000014  0.0005999999999986  0.2500000000000000   
  0.7843999999999980  0.2156000000000020  0.0510999999999981  
  0.2156000000000020  0.7843999999999980  0.9489000000000019   
  0.4162000000000035  0.2085999999999970  0.9566000000000017   
  0.2085999999999970  0.4162000000000035  0.0433999999999983   
  0.5837999999999965  0.7914000000000030  0.0433999999999983   
  0.7914000000000030  0.5837999999999965  0.9566000000000017   
  0.4714000000000027  0.5285999999999973  0.7500000000000000   
  0.5285999999999973  0.4714000000000027  0.2500000000000000  
  0.7843999999999980  0.2156000000000020  0.4489000000000019  
  0.2156000000000020  0.7843999999999980  0.5510999999999981   
  0.4162000000000035  0.2085999999999970  0.5433999999999983   
  0.2085999999999970  0.4162000000000035  0.4566000000000017   
  0.7914000000000030  0.5837999999999965  0.5433999999999983   
  0.5837999999999965  0.7914000000000030  0.4566000000000017   
  0.5722999999999985  0.0075000000000003  0.7500000000000000  
  0.4277000000000015  0.9924999999999997  0.2500000000000000   
  0.9924999999999997  0.4277000000000015  0.7500000000000000   
  0.0075000000000003  0.5722999999999985  0.2500000000000000   
 
  0.00000000E+00  0.00000000E+00  0.00000000E+00
  0.00000000E+00  0.00000000E+00  0.00000000E+00
  0.00000000E+00  0.00000000E+00  0.00000000E+00
  0.00000000E+00  0.00000000E+00  0.00000000E+00
  0.00000000E+00  0.00000000E+00  0.00000000E+00
  0.00000000E+00  0.00000000E+00  0.00000000E+00
  0.00000000E+00  0.00000000E+00  0.00000000E+00
  0.00000000E+00  0.00000000E+00  0.00000000E+00
  0.00000000E+00  0.00000000E+00  0.00000000E+00
  0.00000000E+00  0.00000000E+00  0.00000000E+00
  0.00000000E+00  0.00000000E+00  0.00000000E+00
  0.00000000E+00  0.00000000E+00  0.00000000E+00
  0.00000000E+00  0.00000000E+00  0.00000000E+00
  0.00000000E+00  0.00000000E+00  0.00000000E+00
  0.00000000E+00  0.00000000E+00  0.00000000E+00
  0.00000000E+00  0.00000000E+00  0.00000000E+00
  0.00000000E+00  0.00000000E+00  0.00000000E+00
  0.00000000E+00  0.00000000E+00  0.00000000E+00
  0.00000000E+00  0.00000000E+00  0.00000000E+00
  0.00000000E+00  0.00000000E+00  0.00000000E+00
  0.00000000E+00  0.00000000E+00  0.00000000E+00
  0.00000000E+00  0.00000000E+00  0.00000000E+00
  0.00000000E+00  0.00000000E+00  0.00000000E+00
  0.00000000E+00  0.00000000E+00  0.00000000E+00
  0.00000000E+00  0.00000000E+00  0.00000000E+00
  0.00000000E+00  0.00000000E+00  0.00000000E+00
  0.00000000E+00  0.00000000E+00  0.00000000E+00
  0.00000000E+00  0.00000000E+00  0.00000000E+00
  0.00000000E+00  0.00000000E+00  0.00000000E+00
  0.00000000E+00  0.00000000E+00  0.00000000E+00
