Iron potassium fluoride                 
   1.00000000000000     
     8.1806296782510621    0.0000915887770713   -0.0015054877190972
     0.0005322623700825    8.1808907460437101    0.0033407850907767
    -0.0018838279428676    0.0029454600161876    8.3064837868801540
   Fe   K    F 
     8     8    24
Direct
  0.4999833484368423  0.0000458948292135  0.4999876298296826
  0.5000010000256268  0.0000105790463891  0.9999815565377190
  0.4999440370969097  0.5000063368349572  0.5000042784452745
  0.5000541358423689  0.4999760607269792  0.9999922346163856
  0.0000229750443097  0.9999992660620194  0.5000078402946926
  0.9999786614816912  0.0000311335464573  0.0000148395320991
  0.0000029136491904  0.5000053833621436  0.4999913768696800
  0.0000307176419980  0.4999967389160602  0.9999925141713604
  0.2497794062248246  0.2500399868357661  0.2493576649530524
  0.2498075256147203  0.2502243961740120  0.7508492228730361
  0.2497188112226141  0.7497478519422032  0.2508836854546601
  0.2498438701835681  0.7500057953325410  0.7492790918813697
  0.7501505799394792  0.2499887292344738  0.2506965612106242
  0.7502674991118852  0.2502489307956566  0.7491370863049056
  0.7502027193133642  0.7497779782757164  0.2491536150306928
  0.7502193596368087  0.7499602956614595  0.7506304658069283
  0.2439931876615518  0.5018753474330779  0.0001625279332274
  0.2558805319083248  0.4986956551627770  0.5001726625909342
  0.2558292906084816  0.0006094093944924  0.0004127125561766
  0.2438894294183314  0.9994487866412598  0.5002265875663170
  0.7559549477881689  0.4981667876628677  0.9998427236934191
  0.7441769844191626  0.5013136726088376  0.4998402651084746
  0.7442190088285798  0.9994092030372812  0.9995676171508876
  0.7561477600974200  0.0005323829339474  0.4997632238116765
  0.9994620994084897  0.2441774949595086  0.9993838110207705
  0.0006833525034793  0.2560176703174264  0.4997842803767938
  0.0005243134546333  0.7557721783099893  0.0006389793470589
  0.9993033100869368  0.7439636892950006  0.5001959765330355
  0.5001571290928553  0.2560169114453856  0.0001015111195812
  0.5000841465610861  0.2440738027530216  0.5008395161210970
  0.4998586804127925  0.7439618431571304  0.9999169308167239
  0.4998890401635023  0.7559075071703774  0.4991356935250764
  0.0000822222966406  0.4996545393550775  0.2499335905304747
  0.9998842274155280  0.5003282061162437  0.7500823413218356
  0.9998126384233217  0.9996398724700484  0.2498231320033355
  0.0001704058260898  0.0003589910672588  0.7501331913735783
  0.5001525024364852  0.4997272444806029  0.2501445237425912
  0.4998582120367843  0.5002810071927470  0.7498890524132165
  0.4997701183303747  0.9995711028642802  0.2501065078285478
  0.5002091403547624  0.0004308565953366  0.7499431017029892
 
  0.00000000E+00  0.00000000E+00  0.00000000E+00
  0.00000000E+00  0.00000000E+00  0.00000000E+00
  0.00000000E+00  0.00000000E+00  0.00000000E+00
  0.00000000E+00  0.00000000E+00  0.00000000E+00
  0.00000000E+00  0.00000000E+00  0.00000000E+00
  0.00000000E+00  0.00000000E+00  0.00000000E+00
  0.00000000E+00  0.00000000E+00  0.00000000E+00
  0.00000000E+00  0.00000000E+00  0.00000000E+00
  0.00000000E+00  0.00000000E+00  0.00000000E+00
  0.00000000E+00  0.00000000E+00  0.00000000E+00
  0.00000000E+00  0.00000000E+00  0.00000000E+00
  0.00000000E+00  0.00000000E+00  0.00000000E+00
  0.00000000E+00  0.00000000E+00  0.00000000E+00
  0.00000000E+00  0.00000000E+00  0.00000000E+00
  0.00000000E+00  0.00000000E+00  0.00000000E+00
  0.00000000E+00  0.00000000E+00  0.00000000E+00
  0.00000000E+00  0.00000000E+00  0.00000000E+00
  0.00000000E+00  0.00000000E+00  0.00000000E+00
  0.00000000E+00  0.00000000E+00  0.00000000E+00
  0.00000000E+00  0.00000000E+00  0.00000000E+00
  0.00000000E+00  0.00000000E+00  0.00000000E+00
  0.00000000E+00  0.00000000E+00  0.00000000E+00
  0.00000000E+00  0.00000000E+00  0.00000000E+00
  0.00000000E+00  0.00000000E+00  0.00000000E+00
  0.00000000E+00  0.00000000E+00  0.00000000E+00
  0.00000000E+00  0.00000000E+00  0.00000000E+00
  0.00000000E+00  0.00000000E+00  0.00000000E+00
  0.00000000E+00  0.00000000E+00  0.00000000E+00
  0.00000000E+00  0.00000000E+00  0.00000000E+00
  0.00000000E+00  0.00000000E+00  0.00000000E+00
  0.00000000E+00  0.00000000E+00  0.00000000E+00
  0.00000000E+00  0.00000000E+00  0.00000000E+00
  0.00000000E+00  0.00000000E+00  0.00000000E+00
  0.00000000E+00  0.00000000E+00  0.00000000E+00
  0.00000000E+00  0.00000000E+00  0.00000000E+00
  0.00000000E+00  0.00000000E+00  0.00000000E+00
  0.00000000E+00  0.00000000E+00  0.00000000E+00
  0.00000000E+00  0.00000000E+00  0.00000000E+00
  0.00000000E+00  0.00000000E+00  0.00000000E+00
  0.00000000E+00  0.00000000E+00  0.00000000E+00
