Iron potassium fluoride                 
1.0
        8.1449117661         0.0000000000         0.0000000000
       -0.0001507570         8.1450805650         0.0000000000
       -0.0004333343        -0.0002782659         8.2596082527
   Fe    K    F
    8    8   24
Direct
     0.499999940         0.000000000         0.499999881
     0.499999940         0.000000000         0.000000000
     0.499999940         0.500000000         0.499999881
     0.499999940         0.500000000         0.000000000
     0.000000000         0.000000000         0.499999881
     0.000000000         0.000000000         0.000000000
     0.000000000         0.500000000         0.499999881
     0.000000000         0.500000000         0.000000000
     0.250000000         0.249999985         0.250000030
     0.250000000         0.249999985         0.750000000
     0.250000000         0.750000000         0.250000030
     0.250000000         0.750000000         0.750000000
     0.750000000         0.249999985         0.250000030
     0.750000000         0.249999985         0.750000000
     0.750000000         0.750000000         0.250000030
     0.750000000         0.750000000         0.750000000
     0.250000060         0.500000000         0.000000000
     0.250000060         0.500000000         0.500000000
     0.250000060         0.000000000         0.000000000
     0.250000060         0.000000000         0.500000000
     0.750000060         0.500000000         0.000000000
     0.750000060         0.500000000         0.500000000
     0.750000060         0.000000000         0.000000000
     0.750000060         0.000000000         0.500000000
     0.000000000         0.249999955         0.000000000
     0.000000000         0.249999955         0.500000000
     0.000000000         0.749999940         0.000000000
     0.000000000         0.749999940         0.500000000
     0.500000000         0.249999955         0.000000000
     0.500000000         0.249999955         0.500000000
     0.500000000         0.749999940         0.000000000
     0.500000000         0.749999940         0.500000000
     0.000000000         0.500000000         0.250000060
     0.000000000         0.500000000         0.750000060
     0.000000000         0.000000000         0.250000060
     0.000000000         0.000000000         0.750000060
     0.500000000         0.500000000         0.250000060
     0.500000000         0.500000000         0.750000060
     0.500000000         0.000000000         0.250000060
     0.500000000         0.000000000         0.750000060
