Potassium                               
   1.00000000000000     
     4.2132129251257879   -0.0000098806096602    0.0000130359333565
    -0.0000098803564882    4.2131763450644222   -0.0000088409878699
     0.0000130337723622   -0.0000088423860576    4.2129987415480885
   K 
     2
Direct
 -0.0000000145626991  0.0000000109786068  0.0000000142396909
  0.5000000145626990  0.4999999890213931  0.4999999857603090
 
  0.00000000E+00  0.00000000E+00  0.00000000E+00
  0.00000000E+00  0.00000000E+00  0.00000000E+00
