Fe2 H12 N6 F6                           
   1.00000000000000     
     7.8460001945000002    0.0000000000000000    0.0000000000000000
     0.0000000000000000    7.8460001945000002    0.0000000000000000
     0.0000000000000000    0.0000000000000000    3.8770000935000000
   Fe   H    F    O 
     2    12     6     6
Selective dynamics
Direct
  0.5000000000000000  0.0000000000000000  0.8547000290000000   F   F   F
  0.0000000000000000  0.5000000000000000  0.1453000010000025   F   F   F
  0.9227820039999983  0.1598100069999973  0.9287279839999982   T   T   T
  0.7812709809999987  0.2951540050000006  0.7791979909999966   T   T   T
  0.7675520180000035  0.5360509750000020  0.6500679849999997   T   T   T
  0.6702920199999980  0.5430669779999988  0.9290810230000019   T   T   T
  0.0436290020000030  0.1077080000000024  0.4865809980000009   T   T   T
  0.9219480160000018  0.9187089799999981  0.6001970169999993   T   T   T
  0.1644680050000034  0.0612130020000023  0.0714199989999997   T   T   T
  0.3070580070000020  0.2153760050000031  0.2153459940000033   T   T   T
  0.3176009949999994  0.6951100229999980  0.2346089930000019   T   T   T
  0.5099610090000013  0.7246199849999968  0.1861920059999989   T   T   T
  0.4914169910000012  0.3818219899999988  0.5743399859999982   T   T   T
  0.4102030099999965  0.5650969739999994  0.6176720260000010   T   T   T
  0.0000000000000000  0.5000000000000000  0.6420999770000009   F   F   F
  0.5000000000000000  0.0000000000000000  0.3578999940000003   F   F   F
  0.6025000209999973  0.2246000020000025  0.1394000049999988   F   F   F
  0.2246000020000025  0.3975000080000015  0.8605999950000012   F   F   F
  0.1024999990000026  0.7246000170000002  0.8605999950000012   F   F   F
  0.7246000170000002  0.8974999790000027  0.1394000049999988   F   F   F
  0.5000000000000000  0.5000000000000000  0.5000000000000000   F   F   F
  0.8974999790000027  0.2754000130000023  0.8605999950000012   F   F   F
  0.7753999829999998  0.6025000209999973  0.8605999950000012   F   F   F
  0.0000000000000000  0.0000000000000000  0.5000000000000000   F   F   F
  0.2754000130000023  0.1024999990000026  0.1394000049999988   F   F   F
  0.3975000080000015  0.7753999829999998  0.1394000049999988   F   F   F
 
  0.00000000E+00  0.00000000E+00  0.00000000E+00
  0.00000000E+00  0.00000000E+00  0.00000000E+00
  0.00000000E+00  0.00000000E+00  0.00000000E+00
  0.00000000E+00  0.00000000E+00  0.00000000E+00
  0.00000000E+00  0.00000000E+00  0.00000000E+00
  0.00000000E+00  0.00000000E+00  0.00000000E+00
  0.00000000E+00  0.00000000E+00  0.00000000E+00
  0.00000000E+00  0.00000000E+00  0.00000000E+00
  0.00000000E+00  0.00000000E+00  0.00000000E+00
  0.00000000E+00  0.00000000E+00  0.00000000E+00
  0.00000000E+00  0.00000000E+00  0.00000000E+00
  0.00000000E+00  0.00000000E+00  0.00000000E+00
  0.00000000E+00  0.00000000E+00  0.00000000E+00
  0.00000000E+00  0.00000000E+00  0.00000000E+00
  0.00000000E+00  0.00000000E+00  0.00000000E+00
  0.00000000E+00  0.00000000E+00  0.00000000E+00
  0.00000000E+00  0.00000000E+00  0.00000000E+00
  0.00000000E+00  0.00000000E+00  0.00000000E+00
  0.00000000E+00  0.00000000E+00  0.00000000E+00
  0.00000000E+00  0.00000000E+00  0.00000000E+00
  0.00000000E+00  0.00000000E+00  0.00000000E+00
  0.00000000E+00  0.00000000E+00  0.00000000E+00
  0.00000000E+00  0.00000000E+00  0.00000000E+00
  0.00000000E+00  0.00000000E+00  0.00000000E+00
  0.00000000E+00  0.00000000E+00  0.00000000E+00
  0.00000000E+00  0.00000000E+00  0.00000000E+00
