Potassium fluoride                      
   1.00000000000000     
     5.3392775024670049    0.0000000003318112   -0.0000000112919245
     0.0000000004391416    5.3392775282345895   -0.0000000090840726
    -0.0000000111055488   -0.0000000089552707    5.3392774647015937
   K    F 
     4     4
Direct
  0.0000000073001800  0.9999999975282918  0.9999999868812210
  0.9999999968783229  0.5000000105341087  0.5000000107466107
  0.4999999990040820  0.9999999983137968  0.5000000024294948
  0.5000000089019423  0.4999999904667689  0.9999999946126721
  0.4999999992875814  0.5000000011736461  0.5000000011616947
  0.4999999961061761  0.0000000006521503  0.0000000019064785
  0.9999999960042132  0.4999999994325819  0.0000000014275017
  0.9999999965175093  0.0000000018986555  0.5000000008343193
 
  0.00000000E+00  0.00000000E+00  0.00000000E+00
  0.00000000E+00  0.00000000E+00  0.00000000E+00
  0.00000000E+00  0.00000000E+00  0.00000000E+00
  0.00000000E+00  0.00000000E+00  0.00000000E+00
  0.00000000E+00  0.00000000E+00  0.00000000E+00
  0.00000000E+00  0.00000000E+00  0.00000000E+00
  0.00000000E+00  0.00000000E+00  0.00000000E+00
  0.00000000E+00  0.00000000E+00  0.00000000E+00
