Potassium fluoride
1.0
        5.3800001144         0.0000000000         0.0000000000
        0.0000000000         5.3800001144         0.0000000000
        0.0000000000         0.0000000000         5.3800001144
    K    F
    4    4
Direct
     0.000000000         0.000000000         0.000000000
     0.000000000         0.500000000         0.500000000
     0.500000000         0.000000000         0.500000000
     0.500000000         0.500000000         0.000000000
     0.500000000         0.500000000         0.500000000
     0.500000000         0.000000000         0.000000000
     0.000000000         0.500000000         0.000000000
     0.000000000         0.000000000         0.500000000
