Fe10 H24 N6 F30                         
   1.00000000000000     
    12.7926481981871376    0.0394267223996128    0.1224927299667027
     0.0323487020409165   12.8653128116590167    0.0059410438446198
    -0.0152765654806497   -0.0063434789980380    3.9662589056007596
   Fe   H    N    F 
    10    24     6    30
Direct
  0.7831420494253758  0.9258774370177200  0.4920403242570707
  0.2148754077546587  0.0756085828228430  0.5064827220468217
  0.9976364429995175  0.5019907260493732  0.5053894373336895
  0.4257531736061866  0.2880592264391764  0.5076568804452145
  0.5782231887842766  0.7136440901827051  0.4940741719061659
  0.4967334779095900  0.9999319655609266  0.5006702740270463
  0.0771982948660327  0.7888924277127206  0.4978446579412737
  0.9195407031847679  0.2177055664882338  0.4927442213952091
  0.7100045681863846  0.4294236344999284  0.5069876550636297
  0.2840046084760543  0.5717227773631102  0.5096666560024350
  0.1763698107403035  0.3731228974251577  0.1602857612534577
  0.0953445297419414  0.3293107516133134  0.8625705476869497
  0.1310363194313420  0.2517011582059033  0.1787038048388872
  0.2173965299515304  0.2822961459239299  0.8759369194827870
  0.4790594007289348  0.5487279060904935  0.2045034804247633
  0.5735326903078427  0.4783870701527058  0.0108267831315238
  0.4827160744224042  0.5439201698336976  0.7901365655170810
  0.4493349332255336  0.4383332499668738  0.0076947177331376
  0.9361226380118223  0.0329999140727301  0.1348065676997865
  0.9701228388200670  0.9438321509250958  0.8465171816844851
  0.0263061335028976  0.0608271684193635  0.8430500883073377
  0.0544981184336038  0.9762779773800609  0.1511472211959694
  0.3305112557555581  0.8974263143360239  0.0254876346251466
  0.2979949679377025  0.7922312176581718  0.7944303705384307
  0.4138357376867238  0.7983024566480768  0.9918768629171391
  0.3014579224165469  0.7838806455253908  0.2106910693356197
  0.7372110915888521  0.1364594910237340  0.8178127873522540
  0.6638851186633709  0.1063990217999937  0.1530653470893216
  0.7155780337133876  0.2254639351891372  0.1201240439206971
  0.6186150254653705  0.1888726662826558  0.8586328175071852
  0.7843054178943274  0.7185080517418339  0.1359881428355871
  0.8660464685265802  0.7468896535099522  0.8165961778392746
  0.8195249076897204  0.6262148044232276  0.8487750608220972
  0.9058139713775145  0.6701267646863094  0.1293768367944627
  0.8432149964272606  0.6900500909528445  0.9823785776508016
  0.1557341014521584  0.3095796139325860  0.0196809330481166
  0.4966796091594638  0.5017200985372920  0.0034845728243838
  0.9967214801661172  0.0034340609142962  0.9939014643195047
  0.3365381253162798  0.8184704106432299  0.0051531080581289
  0.6834403354095656  0.1648767137134218  0.9872224013248194
  0.7870258328890880  0.9256344008656959  0.9919229745026680
  0.2094607600621483  0.0801988319239228  0.0057177416764436
  0.2888594101859148  0.2225908721357957  0.5249771624338977
  0.1467126836505148  0.4875231251196683  0.4939514461211014
  0.8482806255593884  0.5136762643925411  0.5140824498635396
  0.9975824597889431  0.3532028377325035  0.5142952710983567
  0.0017817074796672  0.6512993307069581  0.4895844994556722
  0.7165477002450520  0.7766170957681996  0.4753563553419698
  0.6422852339111847  0.5715783372331140  0.5046360451873435
  0.3569724987964830  0.4236818315974972  0.5065916588874460
  0.7032573842562905  0.4283165813702899  0.0062946443177882
  0.2892505405683139  0.5781448221944226  0.0084386290327953
  0.4374498852899366  0.6440338481070221  0.4999578518563740
  0.5641084963429963  0.3509813178705057  0.5100671285434126
  0.1349721460430267  0.9325255191160944  0.4812404122218487
  0.8495168603858798  0.0771476442996374  0.4919025807338520
  0.9204785833124629  0.2159372511110426  0.9934985266065856
  0.2206965485860293  0.7267341585289104  0.5044353551910092
  0.3487883263538309  0.9869247748525455  0.4987084904378776
  0.7797400551288508  0.2877001647888100  0.4820690671569572
  0.6462053453162860  0.0130848478002404  0.4807139808537644
  0.5030199319758235  0.8498337250783654  0.4994901944140225
  0.4973657214253114  0.1521645817937774  0.5097451543610155
  0.9306101861090079  0.8476499761534246  0.5242654143142679
  0.0647022326922384  0.1546904699017659  0.4979935632176344
  0.9973356338002591  0.5029171370475501  0.0044160722678122
  0.4966122362161051  0.0012290253973513  0.9993392102168885
  0.5697920948095140  0.7139444299399127  0.9942373614478076
  0.4251522714580021  0.2897947170706506  0.0089330234543084
  0.0743894566871291  0.7878987851512456  0.9986972146192109
 
  0.00000000E+00  0.00000000E+00  0.00000000E+00
  0.00000000E+00  0.00000000E+00  0.00000000E+00
  0.00000000E+00  0.00000000E+00  0.00000000E+00
  0.00000000E+00  0.00000000E+00  0.00000000E+00
  0.00000000E+00  0.00000000E+00  0.00000000E+00
  0.00000000E+00  0.00000000E+00  0.00000000E+00
  0.00000000E+00  0.00000000E+00  0.00000000E+00
  0.00000000E+00  0.00000000E+00  0.00000000E+00
  0.00000000E+00  0.00000000E+00  0.00000000E+00
  0.00000000E+00  0.00000000E+00  0.00000000E+00
  0.00000000E+00  0.00000000E+00  0.00000000E+00
  0.00000000E+00  0.00000000E+00  0.00000000E+00
  0.00000000E+00  0.00000000E+00  0.00000000E+00
  0.00000000E+00  0.00000000E+00  0.00000000E+00
  0.00000000E+00  0.00000000E+00  0.00000000E+00
  0.00000000E+00  0.00000000E+00  0.00000000E+00
  0.00000000E+00  0.00000000E+00  0.00000000E+00
  0.00000000E+00  0.00000000E+00  0.00000000E+00
  0.00000000E+00  0.00000000E+00  0.00000000E+00
  0.00000000E+00  0.00000000E+00  0.00000000E+00
  0.00000000E+00  0.00000000E+00  0.00000000E+00
  0.00000000E+00  0.00000000E+00  0.00000000E+00
  0.00000000E+00  0.00000000E+00  0.00000000E+00
  0.00000000E+00  0.00000000E+00  0.00000000E+00
  0.00000000E+00  0.00000000E+00  0.00000000E+00
  0.00000000E+00  0.00000000E+00  0.00000000E+00
  0.00000000E+00  0.00000000E+00  0.00000000E+00
  0.00000000E+00  0.00000000E+00  0.00000000E+00
  0.00000000E+00  0.00000000E+00  0.00000000E+00
  0.00000000E+00  0.00000000E+00  0.00000000E+00
  0.00000000E+00  0.00000000E+00  0.00000000E+00
  0.00000000E+00  0.00000000E+00  0.00000000E+00
  0.00000000E+00  0.00000000E+00  0.00000000E+00
  0.00000000E+00  0.00000000E+00  0.00000000E+00
  0.00000000E+00  0.00000000E+00  0.00000000E+00
  0.00000000E+00  0.00000000E+00  0.00000000E+00
  0.00000000E+00  0.00000000E+00  0.00000000E+00
  0.00000000E+00  0.00000000E+00  0.00000000E+00
  0.00000000E+00  0.00000000E+00  0.00000000E+00
  0.00000000E+00  0.00000000E+00  0.00000000E+00
  0.00000000E+00  0.00000000E+00  0.00000000E+00
  0.00000000E+00  0.00000000E+00  0.00000000E+00
  0.00000000E+00  0.00000000E+00  0.00000000E+00
  0.00000000E+00  0.00000000E+00  0.00000000E+00
  0.00000000E+00  0.00000000E+00  0.00000000E+00
  0.00000000E+00  0.00000000E+00  0.00000000E+00
  0.00000000E+00  0.00000000E+00  0.00000000E+00
  0.00000000E+00  0.00000000E+00  0.00000000E+00
  0.00000000E+00  0.00000000E+00  0.00000000E+00
  0.00000000E+00  0.00000000E+00  0.00000000E+00
  0.00000000E+00  0.00000000E+00  0.00000000E+00
  0.00000000E+00  0.00000000E+00  0.00000000E+00
  0.00000000E+00  0.00000000E+00  0.00000000E+00
  0.00000000E+00  0.00000000E+00  0.00000000E+00
  0.00000000E+00  0.00000000E+00  0.00000000E+00
  0.00000000E+00  0.00000000E+00  0.00000000E+00
  0.00000000E+00  0.00000000E+00  0.00000000E+00
  0.00000000E+00  0.00000000E+00  0.00000000E+00
  0.00000000E+00  0.00000000E+00  0.00000000E+00
  0.00000000E+00  0.00000000E+00  0.00000000E+00
  0.00000000E+00  0.00000000E+00  0.00000000E+00
  0.00000000E+00  0.00000000E+00  0.00000000E+00
  0.00000000E+00  0.00000000E+00  0.00000000E+00
  0.00000000E+00  0.00000000E+00  0.00000000E+00
  0.00000000E+00  0.00000000E+00  0.00000000E+00
  0.00000000E+00  0.00000000E+00  0.00000000E+00
  0.00000000E+00  0.00000000E+00  0.00000000E+00
  0.00000000E+00  0.00000000E+00  0.00000000E+00
  0.00000000E+00  0.00000000E+00  0.00000000E+00
  0.00000000E+00  0.00000000E+00  0.00000000E+00
