Fe10 H24 N6 F30                         
   1.00000000000000     
    12.5761400000000005    0.0165750000000000    0.0004550000000000
    -0.0071160000000000   12.7670250000000003   -0.0003300000000000
    -0.0000830000000000    0.0000750000000000    3.9622280000000001
   Fe   H    N    F 
    10    24     6    30
Direct
  0.7832409999999967  0.9217739999999992  0.5000039999999970   
  0.2169560000000033  0.0781339999999986  0.5000110000000006   
  0.9997329999999991  0.4996420000000015  0.4999949999999984   
  0.4201860000000011  0.2914900000000031  0.5000029999999995  
  0.5797999999999988  0.7085110000000014  0.4999409999999997   
  0.5002309999999994  0.9998909999999981  0.4999990000000025   
  0.0799889999999976  0.7913500000000013  0.5000289999999978   
  0.9198599999999999  0.2085080000000019  0.5000050000000016  
  0.7174600000000027  0.4226669999999970  0.4999869999999973  
  0.2825249999999997  0.5774669999999986  0.5000059999999991   
  0.1729620445580480  0.3760658567675677  0.1332801095605234   
  0.0855372862797452  0.3270219212161294  0.8586901462707033   
  0.1339202477214201  0.2519690840978797  0.1669937489381610  
  0.2109739985203376  0.2859968432021347  0.8401957183773661   
  0.4644866363672904  0.5604998180022207  0.1249462919179152   
  0.5769556175385802  0.4909190472157547  0.0751228588096708   
  0.4993178001623875  0.5153639725022003  0.7482930270985975   
  0.4581686269993597  0.4331957198401142  0.0412799013548408   
  0.9395797844847351  0.0263771347377855  0.1506675412309875   
  0.9729539704322931  0.9410767849660644  0.8497957248711714   
  0.0276970158399052  0.0591195203487374  0.8518231255224222   
  0.0603730365567969  0.9731578552914968  0.1511381124848086   
  0.3425545797161078  0.8870630071709726  0.1054460724041206   
  0.3057923784917591  0.8117864702311337  0.7745188100222293   
  0.4226137780616881  0.7928350594541840  0.9639891341925519   
  0.3085240445507864  0.7623796246067158  0.1609590192470236   
  0.7081131268948084  0.1386237067191232  0.8878240004647537   
  0.6368044312971222  0.1593281670490683  0.2346924485854416   
  0.6846376688217575  0.2612981887444334  0.0151817222891708  
  0.5868733660908134  0.1877186952259606  0.8544536659835842   
  0.7884591475507037  0.7148337150093695  0.1561866758557713   
  0.8669827213158356  0.7465229487626743  0.8300916112937813   
  0.8269827440079780  0.6229608699859455  0.8696027424149406   
  0.9137502962230286  0.6730436995659801  0.1448021188208628   
  0.8483190000000036  0.6889910000000015  0.9999240000000000   
  0.1515369999999976  0.3105869999999982  0.0001320000000007   
  0.5000039999999970  0.5001499999999979  0.9998950000000022  
  0.0000679999999988  0.9999669999999981  0.0000410000000031   
  0.3451680000000010  0.8137850000000029  0.0001430000000013   
  0.6540960000000027  0.1870619999999974  0.9998689999999968   
  0.7920939999999987  0.9154959999999974  0.0000020000000021  
  0.2079820000000012  0.0846659999999986  0.0000300000000024   
  0.2775630000000007  0.2332180000000008  0.5001090000000019   
  0.1511909999999972  0.4774120000000011  0.5000149999999977   
  0.8485179999999986  0.5226899999999972  0.5000140000000002   
  0.9883080000000035  0.3489360000000019  0.5000440000000026   
  0.0118379999999974  0.6505420000000015  0.5000410000000031   
  0.7224580000000032  0.7667670000000015  0.4998819999999995   
  0.6309860000000000  0.5634119999999996  0.4998319999999978  
  0.3691740000000010  0.4369999999999976  0.4999830000000003   
  0.7085110000000014  0.4160600000000017  0.9999520000000004   
  0.2915509999999983  0.5842880000000008  0.0000130000000027   
  0.4335829999999987  0.6551499999999990  0.4998840000000015   
  0.5666009999999986  0.3451019999999971  0.4999770000000012   
  0.1300990000000013  0.9374669999999981  0.5000840000000011   
  0.8701039999999978  0.0623429999999985  0.5000670000000014   
  0.9230299999999971  0.2061840000000004  0.9999970000000005   
  0.2229409999999987  0.7332570000000018  0.5001040000000003   
  0.3482259999999968  0.9779449999999983  0.5000969999999967   
  0.7770840000000021  0.2670349999999999  0.4998879999999986   
  0.6520549999999972  0.0221159999999969  0.4999830000000003   
  0.5109789999999990  0.8478980000000007  0.4999600000000015  
  0.4892299999999992  0.1518760000000015  0.5000050000000016  
  0.9326819999999998  0.8427530000000019  0.5000610000000023   
  0.0671660000000003  0.1569610000000026  0.5000190000000018   
  0.9997940000000014  0.4996739999999988  0.0000240000000034   
  0.5000330000000019  0.9999680000000026  0.0000009999999975   
  0.5772720000000007  0.7063530000000000  0.9999200000000030   
  0.4230009999999993  0.2937950000000029  0.0000089999999986   
  0.0767719999999983  0.7936580000000006  0.0000190000000018   
 
  0.00000000E+00  0.00000000E+00  0.00000000E+00
  0.00000000E+00  0.00000000E+00  0.00000000E+00
  0.00000000E+00  0.00000000E+00  0.00000000E+00
  0.00000000E+00  0.00000000E+00  0.00000000E+00
  0.00000000E+00  0.00000000E+00  0.00000000E+00
  0.00000000E+00  0.00000000E+00  0.00000000E+00
  0.00000000E+00  0.00000000E+00  0.00000000E+00
  0.00000000E+00  0.00000000E+00  0.00000000E+00
  0.00000000E+00  0.00000000E+00  0.00000000E+00
  0.00000000E+00  0.00000000E+00  0.00000000E+00
  0.00000000E+00  0.00000000E+00  0.00000000E+00
  0.00000000E+00  0.00000000E+00  0.00000000E+00
  0.00000000E+00  0.00000000E+00  0.00000000E+00
  0.00000000E+00  0.00000000E+00  0.00000000E+00
  0.00000000E+00  0.00000000E+00  0.00000000E+00
  0.00000000E+00  0.00000000E+00  0.00000000E+00
  0.00000000E+00  0.00000000E+00  0.00000000E+00
  0.00000000E+00  0.00000000E+00  0.00000000E+00
  0.00000000E+00  0.00000000E+00  0.00000000E+00
  0.00000000E+00  0.00000000E+00  0.00000000E+00
  0.00000000E+00  0.00000000E+00  0.00000000E+00
  0.00000000E+00  0.00000000E+00  0.00000000E+00
  0.00000000E+00  0.00000000E+00  0.00000000E+00
  0.00000000E+00  0.00000000E+00  0.00000000E+00
  0.00000000E+00  0.00000000E+00  0.00000000E+00
  0.00000000E+00  0.00000000E+00  0.00000000E+00
  0.00000000E+00  0.00000000E+00  0.00000000E+00
  0.00000000E+00  0.00000000E+00  0.00000000E+00
  0.00000000E+00  0.00000000E+00  0.00000000E+00
  0.00000000E+00  0.00000000E+00  0.00000000E+00
  0.00000000E+00  0.00000000E+00  0.00000000E+00
  0.00000000E+00  0.00000000E+00  0.00000000E+00
  0.00000000E+00  0.00000000E+00  0.00000000E+00
  0.00000000E+00  0.00000000E+00  0.00000000E+00
  0.00000000E+00  0.00000000E+00  0.00000000E+00
  0.00000000E+00  0.00000000E+00  0.00000000E+00
  0.00000000E+00  0.00000000E+00  0.00000000E+00
  0.00000000E+00  0.00000000E+00  0.00000000E+00
  0.00000000E+00  0.00000000E+00  0.00000000E+00
  0.00000000E+00  0.00000000E+00  0.00000000E+00
  0.00000000E+00  0.00000000E+00  0.00000000E+00
  0.00000000E+00  0.00000000E+00  0.00000000E+00
  0.00000000E+00  0.00000000E+00  0.00000000E+00
  0.00000000E+00  0.00000000E+00  0.00000000E+00
  0.00000000E+00  0.00000000E+00  0.00000000E+00
  0.00000000E+00  0.00000000E+00  0.00000000E+00
  0.00000000E+00  0.00000000E+00  0.00000000E+00
  0.00000000E+00  0.00000000E+00  0.00000000E+00
  0.00000000E+00  0.00000000E+00  0.00000000E+00
  0.00000000E+00  0.00000000E+00  0.00000000E+00
  0.00000000E+00  0.00000000E+00  0.00000000E+00
  0.00000000E+00  0.00000000E+00  0.00000000E+00
  0.00000000E+00  0.00000000E+00  0.00000000E+00
  0.00000000E+00  0.00000000E+00  0.00000000E+00
  0.00000000E+00  0.00000000E+00  0.00000000E+00
  0.00000000E+00  0.00000000E+00  0.00000000E+00
  0.00000000E+00  0.00000000E+00  0.00000000E+00
  0.00000000E+00  0.00000000E+00  0.00000000E+00
  0.00000000E+00  0.00000000E+00  0.00000000E+00
  0.00000000E+00  0.00000000E+00  0.00000000E+00
  0.00000000E+00  0.00000000E+00  0.00000000E+00
  0.00000000E+00  0.00000000E+00  0.00000000E+00
  0.00000000E+00  0.00000000E+00  0.00000000E+00
  0.00000000E+00  0.00000000E+00  0.00000000E+00
  0.00000000E+00  0.00000000E+00  0.00000000E+00
  0.00000000E+00  0.00000000E+00  0.00000000E+00
  0.00000000E+00  0.00000000E+00  0.00000000E+00
  0.00000000E+00  0.00000000E+00  0.00000000E+00
  0.00000000E+00  0.00000000E+00  0.00000000E+00
  0.00000000E+00  0.00000000E+00  0.00000000E+00
