Iron(III) fluoride                      
   1.00000000000000     
     5.1227516662020482    0.0004835550185538    0.0004053947988148
    -2.5609570704599025    4.4366724066057772   -0.0004049591058053
     0.0010449722245217   -0.0006019836510390   13.3323171337922997
   Fe   F 
     6    18
Direct
  0.0000012372463871  0.0000011714413120  0.0000102520671561
  0.0000008468014840  0.0000011193257308  0.4999904850393264
  0.6665990565184146  0.3331488792286876  0.3336514128236345
  0.6668528873016371  0.3334012081897910  0.8336530940499571
  0.3334010912515026  0.6668530293465977  0.6663471003137076
  0.3331488980277726  0.6665997537023642  0.1663484851139998
  0.3977043977634906  0.0002569131153010  0.7500466147029101
  0.6022960735183531  0.9997435618559933  0.2499537202138598
  0.0002564234654372  0.3977049273904996  0.7499534374266048
  0.9997442573396853  0.6022964390866719  0.2500463123179912
  0.6017883677578979  0.6017883867009388  0.7500000272684488
  0.3982099318025760  0.3982102953285391  0.2500000869726051
  0.0633263579110093  0.3331423587103046  0.0832035921455798
  0.2701901495333843  0.3333138489554628  0.5832358273665079
  0.6666807493158018  0.7297962295116065  0.0832390906862628
  0.6668650900866666  0.9366682107129662  0.5831992867391236
  0.2701975159854726  0.9369609948951734  0.0832010152181368
  0.0630427364169961  0.7298135662768672  0.5831967880221782
  0.7297962322633396  0.6666805188314981  0.4167612256676207
  0.9366676838560508  0.6668656843455167  0.9168008048104284
  0.3331422004150326  0.0633262057542225  0.4167967107992752
  0.3333137520761298  0.2701906729287842  0.9167643299634847
  0.9369594945441904  0.2701926188535637  0.4167968754786173
  0.7298145848013036  0.0630434215116225  0.9168034187925755
 
  0.00000000E+00  0.00000000E+00  0.00000000E+00
  0.00000000E+00  0.00000000E+00  0.00000000E+00
  0.00000000E+00  0.00000000E+00  0.00000000E+00
  0.00000000E+00  0.00000000E+00  0.00000000E+00
  0.00000000E+00  0.00000000E+00  0.00000000E+00
  0.00000000E+00  0.00000000E+00  0.00000000E+00
  0.00000000E+00  0.00000000E+00  0.00000000E+00
  0.00000000E+00  0.00000000E+00  0.00000000E+00
  0.00000000E+00  0.00000000E+00  0.00000000E+00
  0.00000000E+00  0.00000000E+00  0.00000000E+00
  0.00000000E+00  0.00000000E+00  0.00000000E+00
  0.00000000E+00  0.00000000E+00  0.00000000E+00
  0.00000000E+00  0.00000000E+00  0.00000000E+00
  0.00000000E+00  0.00000000E+00  0.00000000E+00
  0.00000000E+00  0.00000000E+00  0.00000000E+00
  0.00000000E+00  0.00000000E+00  0.00000000E+00
  0.00000000E+00  0.00000000E+00  0.00000000E+00
  0.00000000E+00  0.00000000E+00  0.00000000E+00
  0.00000000E+00  0.00000000E+00  0.00000000E+00
  0.00000000E+00  0.00000000E+00  0.00000000E+00
  0.00000000E+00  0.00000000E+00  0.00000000E+00
  0.00000000E+00  0.00000000E+00  0.00000000E+00
  0.00000000E+00  0.00000000E+00  0.00000000E+00
  0.00000000E+00  0.00000000E+00  0.00000000E+00
