Iron(III) fluoride                      
   1.00000000000000     
     5.1579116153446591   -0.0017272031653657   -0.0010429084234490
    -2.5804515997250150    4.4660191612907427    0.0010430945652149
    -0.0026691743893012    0.0015415146045070   13.3262185111268430
   Fe   F 
     6    18
Direct
  0.0000004293628060 -0.0000002428292999  0.0000004265137029
 -0.0000003607584920  0.0000004338439230  0.4999995758242078
  0.6661710717001230  0.3327375404321796  0.3329636200308116
  0.6672640709181317  0.3338300218813446  0.8329636552373262
  0.3338299660191606  0.6672639793357144  0.6670364939891218
  0.3327374061481645  0.6661712191667071  0.1670362155509310
  0.4050311649482780  0.0000991352000854  0.7500163276968591
  0.5949675680418549 -0.0000993087052571  0.2499837206013149
  0.0000993689169313  0.4050312034074061  0.7499835373676768
 -0.0000996305826873  0.5949673253382430  0.2500164420139955
  0.5951950045212276  0.5951951374463965  0.7499999524724357
  0.4048047630402929  0.4048046839678118  0.2500000189530737
  0.0708347382610810  0.3337739215149462  0.0833017013093069
  0.2629624297118772  0.3340211129872231  0.5833706068767253
  0.6659803480515379  0.7370376816640546  0.0833701664695077
  0.6662246112747122  0.9291637957293566  0.5833019340887816
  0.2628695459242550  0.9289574099842198  0.0833485243492285
  0.0710428837560198  0.7371301206847147  0.5833486323647410
  0.7370375996327481  0.6659802378032053  0.4166298143027076
  0.9291640697198208  0.6662249223895496  0.9166980448889275
  0.3337740976071082  0.0708347195957285  0.4166983736468926
  0.3340210581822880  0.2629622613907245  0.9166294133609869
  0.9289574059818094  0.2628697347985477  0.4166514643558361
  0.7371304056209530  0.0710429689724753  0.9166513317349080
 
  0.00000000E+00  0.00000000E+00  0.00000000E+00
  0.00000000E+00  0.00000000E+00  0.00000000E+00
  0.00000000E+00  0.00000000E+00  0.00000000E+00
  0.00000000E+00  0.00000000E+00  0.00000000E+00
  0.00000000E+00  0.00000000E+00  0.00000000E+00
  0.00000000E+00  0.00000000E+00  0.00000000E+00
  0.00000000E+00  0.00000000E+00  0.00000000E+00
  0.00000000E+00  0.00000000E+00  0.00000000E+00
  0.00000000E+00  0.00000000E+00  0.00000000E+00
  0.00000000E+00  0.00000000E+00  0.00000000E+00
  0.00000000E+00  0.00000000E+00  0.00000000E+00
  0.00000000E+00  0.00000000E+00  0.00000000E+00
  0.00000000E+00  0.00000000E+00  0.00000000E+00
  0.00000000E+00  0.00000000E+00  0.00000000E+00
  0.00000000E+00  0.00000000E+00  0.00000000E+00
  0.00000000E+00  0.00000000E+00  0.00000000E+00
  0.00000000E+00  0.00000000E+00  0.00000000E+00
  0.00000000E+00  0.00000000E+00  0.00000000E+00
  0.00000000E+00  0.00000000E+00  0.00000000E+00
  0.00000000E+00  0.00000000E+00  0.00000000E+00
  0.00000000E+00  0.00000000E+00  0.00000000E+00
  0.00000000E+00  0.00000000E+00  0.00000000E+00
  0.00000000E+00  0.00000000E+00  0.00000000E+00
  0.00000000E+00  0.00000000E+00  0.00000000E+00
