Potassium iron iron(III) fluoride (0.59/
   1.00000000000000     
    12.7571278844891633    0.0034897903504301   -0.0012102951567892
    -0.0052405441016983   12.6085357898895793    0.0088942869947471
     0.0006528083251571    0.0042646062816621    8.0179309046720615
   Fe   K    F 
    20    12    60
Direct
  0.5011065713748977  0.9995151415721040  0.2500723055945144
  0.9992320382631519  0.4993787715906137  0.2499551663580917
  0.5018363799362859  0.9996877658100090  0.7500568026231491
  0.9979704812070835  0.4996839535390052  0.7499036078973376
  0.4241619739235958  0.2835876195888289  0.2500437627505860
  0.5753030987246959  0.7159350341799495  0.2463253341450695
  0.9247547313878428  0.2159387468769935  0.2468134533462916
  0.0770982626415915  0.7816585315657179  0.2499180182268574
  0.4207640380018347  0.2861196862168427  0.7500240113272127
  0.5770012282237147  0.7104758118228673  0.7462268878359950
  0.9226533903824290  0.2100146975090027  0.7470359151845756
  0.0780100646354995  0.7865758953972559  0.7500449116167474
  0.2106058679190639  0.0777024134557607  0.2501154244798443
  0.7903123771139775  0.9239975672046086  0.2493796762054004
  0.7099089821399005  0.4241622663471816  0.2492126320434949
  0.2904797757765323  0.5765645592261848  0.2484446919457639
  0.2132644891439313  0.0795336642105156  0.7499710601372556
  0.7871812408332630  0.9212197420971222  0.7498388127716211
  0.7127568607788390  0.4212417315008778  0.7497208621387657
  0.2864584152148808  0.5806647578826940  0.7486468803595727
  0.4981916280285503  0.4970605079148456  0.9942532463743490
  0.0027089834752161  0.9960108636284346  0.9975392966544376
  0.0025189758380151  0.9957582527097841  0.5012691229177619
  0.4981283430178962  0.4971194141171935  0.5024174905840795
  0.6675162138551727  0.1692000732253831  0.0004221298631748
  0.3136525938963786  0.8456952819920573  0.0038484959237053
  0.1859607104259595  0.3448985664842610  0.0024472202382739
  0.8326881056459214  0.6698701700507073  0.0013151822720232
  0.1827041494087283  0.3432863623474063  0.4984442709293475
  0.8340003023443998  0.6724069560371504  0.4978448635157378
  0.6657824506938326  0.1718088198759702  0.4992595615251858
  0.3147400947601184  0.8438258451337646  0.4959154040737204
  0.5022605341560720  0.9979538207148906  0.5119390676476314
  0.9973461839952975  0.4972452675742645  0.5119800355145330
  0.5025702029201611  0.9965219184683392  0.9882219894694515
  0.9968155058197183  0.4966505204237706  0.9877430356064139
  0.4185869036516436  0.2930373865841958  0.0010072588429111
  0.5806759409530855  0.7058119107115743  0.9866259715977890
  0.9194314256711564  0.2056370209479965  0.9873568626679230
  0.0818989976017050  0.7931729277263244  0.0059276952903531
  0.4206349258241815  0.2921174755712315  0.4989781429916320
  0.5800346588075840  0.7073542567955755  0.5067978547976253
  0.9194695230646843  0.2073147289566393  0.5074004858580494
  0.0813319673015656  0.7923024154934026  0.4940274262732700
  0.2070134919247835  0.0761191657845544  0.0103047255782087
  0.7947400631542365  0.9220321682172212  0.0097498078679976
  0.7056980042216878  0.4229916466419112  0.0097344339566376
  0.2932006424315503  0.5749225564569684  0.0087586183269508
  0.2066923173932835  0.0763335460442107  0.4898565982307233
  0.7949392732736840  0.9198661276944406  0.4890842275156473
  0.7046482171663513  0.4198345717692789  0.4886669410562376
  0.2941683164048925  0.5764097152948935  0.4882186027886206
  0.2705736690786438  0.2186841476806194  0.2503791532519770
  0.7266865798300088  0.7827783971036126  0.2476650993170111
  0.7728538508713640  0.2825822336901993  0.2475924646950105
  0.2316873741794936  0.7176414705519818  0.2488361810084356
  0.2679271526106604  0.2260363730923913  0.7499455475659929
  0.7167119279022387  0.7716071056011558  0.7481955706161756
  0.7831713195240155  0.2713441415865532  0.7492821672655410
  0.2285108686236796  0.7266950340997269  0.7498421887321030
  0.3405847764166907  0.0022202554390631  0.2507705520923196
  0.6629843932969806  0.0013304535199552  0.2504424867668860
  0.8374860434508875  0.5005699233839138  0.2511911893845493
  0.1600459293186276  0.5015483945149981  0.2496542135996975
  0.3514227656480173  0.9907319506005905  0.7505850718154292
  0.6549067973116820  0.0049918860987148  0.7500203773645779
  0.8448749502976796  0.5057878100905953  0.7492620037382025
  0.1479069437119875  0.4919709037901754  0.7496701144995939
  0.5201998069940856  0.1546373755055939  0.2494765477651413
  0.4830223358530077  0.8421519807094526  0.2491482669228375
  0.0171189243765824  0.3421359437557854  0.2487575741055608
  0.9789811520958054  0.6535986757532228  0.2496912369309641
  0.5112384233743938  0.1506272606597960  0.7515971753052710
  0.5000359647903778  0.8436923591439012  0.7488566347513697
  0.9997851774209039  0.3435461072217407  0.7490819576010139
  0.9887595621480969  0.6517682691961681  0.7505602568603464
  0.3525007233184851  0.4344532575143916  0.2497690768164844
  0.6426878762380213  0.5670719219335325  0.2491024965035109
  0.8583769409381077  0.0664362704432619  0.2488699829343020
  0.1485019176446301  0.9356897931344363  0.2504245069998845
  0.1450751635171770  0.9356849929660598  0.7498928923727419
  0.8608611703985432  0.0701530357146609  0.7470878981203128
  0.6386439010304557  0.5706374653320410  0.7462109942999788
  0.3542095649943562  0.4376583073039697  0.7483728885160303
  0.5700493200596028  0.3654571929148034  0.2482537421346507
  0.4326735664096901  0.6309170694390147  0.2468900309706115
  0.0685076838963852  0.1326052382100968  0.2494884543681124
  0.9290838071411542  0.8637668187542644  0.2492940472524481
  0.0582237027620351  0.1412079041072687  0.7476938281438308
  0.9293197603104133  0.8558690454097331  0.7500064722699236
  0.5713049417702720  0.3567170752074702  0.7506370416252679
  0.4408932956942664  0.6427675478423751  0.7469955249773008
 
  0.00000000E+00  0.00000000E+00  0.00000000E+00
  0.00000000E+00  0.00000000E+00  0.00000000E+00
  0.00000000E+00  0.00000000E+00  0.00000000E+00
  0.00000000E+00  0.00000000E+00  0.00000000E+00
  0.00000000E+00  0.00000000E+00  0.00000000E+00
  0.00000000E+00  0.00000000E+00  0.00000000E+00
  0.00000000E+00  0.00000000E+00  0.00000000E+00
  0.00000000E+00  0.00000000E+00  0.00000000E+00
  0.00000000E+00  0.00000000E+00  0.00000000E+00
  0.00000000E+00  0.00000000E+00  0.00000000E+00
  0.00000000E+00  0.00000000E+00  0.00000000E+00
  0.00000000E+00  0.00000000E+00  0.00000000E+00
  0.00000000E+00  0.00000000E+00  0.00000000E+00
  0.00000000E+00  0.00000000E+00  0.00000000E+00
  0.00000000E+00  0.00000000E+00  0.00000000E+00
  0.00000000E+00  0.00000000E+00  0.00000000E+00
  0.00000000E+00  0.00000000E+00  0.00000000E+00
  0.00000000E+00  0.00000000E+00  0.00000000E+00
  0.00000000E+00  0.00000000E+00  0.00000000E+00
  0.00000000E+00  0.00000000E+00  0.00000000E+00
  0.00000000E+00  0.00000000E+00  0.00000000E+00
  0.00000000E+00  0.00000000E+00  0.00000000E+00
  0.00000000E+00  0.00000000E+00  0.00000000E+00
  0.00000000E+00  0.00000000E+00  0.00000000E+00
  0.00000000E+00  0.00000000E+00  0.00000000E+00
  0.00000000E+00  0.00000000E+00  0.00000000E+00
  0.00000000E+00  0.00000000E+00  0.00000000E+00
  0.00000000E+00  0.00000000E+00  0.00000000E+00
  0.00000000E+00  0.00000000E+00  0.00000000E+00
  0.00000000E+00  0.00000000E+00  0.00000000E+00
  0.00000000E+00  0.00000000E+00  0.00000000E+00
  0.00000000E+00  0.00000000E+00  0.00000000E+00
  0.00000000E+00  0.00000000E+00  0.00000000E+00
  0.00000000E+00  0.00000000E+00  0.00000000E+00
  0.00000000E+00  0.00000000E+00  0.00000000E+00
  0.00000000E+00  0.00000000E+00  0.00000000E+00
  0.00000000E+00  0.00000000E+00  0.00000000E+00
  0.00000000E+00  0.00000000E+00  0.00000000E+00
  0.00000000E+00  0.00000000E+00  0.00000000E+00
  0.00000000E+00  0.00000000E+00  0.00000000E+00
  0.00000000E+00  0.00000000E+00  0.00000000E+00
  0.00000000E+00  0.00000000E+00  0.00000000E+00
  0.00000000E+00  0.00000000E+00  0.00000000E+00
  0.00000000E+00  0.00000000E+00  0.00000000E+00
  0.00000000E+00  0.00000000E+00  0.00000000E+00
  0.00000000E+00  0.00000000E+00  0.00000000E+00
  0.00000000E+00  0.00000000E+00  0.00000000E+00
  0.00000000E+00  0.00000000E+00  0.00000000E+00
  0.00000000E+00  0.00000000E+00  0.00000000E+00
  0.00000000E+00  0.00000000E+00  0.00000000E+00
  0.00000000E+00  0.00000000E+00  0.00000000E+00
  0.00000000E+00  0.00000000E+00  0.00000000E+00
  0.00000000E+00  0.00000000E+00  0.00000000E+00
  0.00000000E+00  0.00000000E+00  0.00000000E+00
  0.00000000E+00  0.00000000E+00  0.00000000E+00
  0.00000000E+00  0.00000000E+00  0.00000000E+00
  0.00000000E+00  0.00000000E+00  0.00000000E+00
  0.00000000E+00  0.00000000E+00  0.00000000E+00
  0.00000000E+00  0.00000000E+00  0.00000000E+00
  0.00000000E+00  0.00000000E+00  0.00000000E+00
  0.00000000E+00  0.00000000E+00  0.00000000E+00
  0.00000000E+00  0.00000000E+00  0.00000000E+00
  0.00000000E+00  0.00000000E+00  0.00000000E+00
  0.00000000E+00  0.00000000E+00  0.00000000E+00
  0.00000000E+00  0.00000000E+00  0.00000000E+00
  0.00000000E+00  0.00000000E+00  0.00000000E+00
  0.00000000E+00  0.00000000E+00  0.00000000E+00
  0.00000000E+00  0.00000000E+00  0.00000000E+00
  0.00000000E+00  0.00000000E+00  0.00000000E+00
  0.00000000E+00  0.00000000E+00  0.00000000E+00
  0.00000000E+00  0.00000000E+00  0.00000000E+00
  0.00000000E+00  0.00000000E+00  0.00000000E+00
  0.00000000E+00  0.00000000E+00  0.00000000E+00
  0.00000000E+00  0.00000000E+00  0.00000000E+00
  0.00000000E+00  0.00000000E+00  0.00000000E+00
  0.00000000E+00  0.00000000E+00  0.00000000E+00
  0.00000000E+00  0.00000000E+00  0.00000000E+00
  0.00000000E+00  0.00000000E+00  0.00000000E+00
  0.00000000E+00  0.00000000E+00  0.00000000E+00
  0.00000000E+00  0.00000000E+00  0.00000000E+00
  0.00000000E+00  0.00000000E+00  0.00000000E+00
  0.00000000E+00  0.00000000E+00  0.00000000E+00
  0.00000000E+00  0.00000000E+00  0.00000000E+00
  0.00000000E+00  0.00000000E+00  0.00000000E+00
  0.00000000E+00  0.00000000E+00  0.00000000E+00
  0.00000000E+00  0.00000000E+00  0.00000000E+00
  0.00000000E+00  0.00000000E+00  0.00000000E+00
  0.00000000E+00  0.00000000E+00  0.00000000E+00
  0.00000000E+00  0.00000000E+00  0.00000000E+00
  0.00000000E+00  0.00000000E+00  0.00000000E+00
  0.00000000E+00  0.00000000E+00  0.00000000E+00
  0.00000000E+00  0.00000000E+00  0.00000000E+00
