Potassium iron iron(III) fluoride (0.59/
   1.00000000000000     
    12.7342576451861476   -0.0076773005419423   -0.0005419957529089
    -0.0075895497793651   12.6340537947223339    0.0062562826527843
    -0.0000482424086863    0.0040412333513257    8.0004063547995177
   Fe   K    F 
    20    12    60
Direct
  0.5003188354448828  0.0000451649743973  0.2498674400660783
  0.0001799708505480  0.5003132790460015  0.2500026744874916
  0.4999332922638607  0.0001554390860239  0.7499375025872911
 -0.0000507922047631  0.5015015714888154  0.7498172518304326
  0.4240496211314952  0.2842263371086855  0.2468923821216083
  0.5752671352353291  0.7161254510306020  0.2477074107639525
  0.9245385176880448  0.2157252983410435  0.2469990236327747
  0.0761431791026054  0.7836966015866638  0.2492907327188533
  0.4223535997538384  0.2883996296339592  0.7484780898808208
  0.5774309261037254  0.7116210974368508  0.7491364043802237
  0.9229259577480646  0.2109707019428405  0.7480350833157579
  0.0783053947330342  0.7872083562935686  0.7495752157843354
  0.2113343083033637  0.0755395681225686  0.2497137142670881
  0.7892205008932767  0.9246840022377897  0.2495499448184146
  0.7103696545208512  0.4250878012088045  0.2494913656256561
  0.2893218621666181  0.5751795187830779  0.2494684036755308
  0.2140559996719288  0.0778179971333339  0.7493990328734146
  0.7855866175419398  0.9217199432864582  0.7495969815538996
  0.7132234645659514  0.4219476572649569  0.7497485390038140
  0.2862557094266382  0.5775546808402371  0.7493317586054834
  0.4994640961761956  0.5002541752361427  0.9950623491900327
  0.0020914563177586  0.9975805685010888  0.9952400740912511
  0.0020951713622369  0.9976817983668328  0.5030301364726955
  0.4994285164582749  0.5003098899629352  0.5037145425307411
  0.6706514224644556  0.1690348278128606  0.0000156996467320
  0.3261946310651775  0.8310785771784620 -0.0004442672940546
  0.1723252960972265  0.3307834451719305  0.0005203541224684
  0.8302856901742708  0.6700332266370870 -0.0003624186592551
  0.1721199369053833  0.3311466540002665  0.4973410593199621
  0.8306827444910185  0.6697916154276735  0.4980634005861282
  0.6702334626596016  0.1687222500993049  0.4980723631498887
  0.3263556941612163  0.8314377262667384  0.4987489884070520
  0.5011776945672939  0.0002540455595054  0.5103597293886283
  0.9996668392186882  0.4974994066980298  0.5112829692016991
  0.5012730266159442  0.0002486690650429  0.9894274423992615
  0.9996023939091305  0.4974194809516706  0.9882206885285580
  0.4194694287997148  0.2948500441510859  0.9926432549585781
  0.5807266079314410  0.7055512268140856  0.9921099479985769
  0.9195798536044304  0.2069801008881224  0.9879435068073001
  0.0798647775448128  0.7948334206308395  0.0060930681370731
  0.4219379258541495  0.2928435875290442  0.5043911858880612
  0.5781280128049862  0.7079061181770202  0.5056949092489023
  0.9209582844565416  0.2073593596718821  0.5085935446171063
  0.0781884108484134  0.7936274748973206  0.4920914134427330
  0.2063259022111335  0.0784691655162833  0.0093536521513361
  0.7927999296874646  0.9246268732894956  0.0060242989587600
  0.7060702586189631  0.4226525658425264  0.0067067666218225
  0.2944051289873226  0.5760210564434292  0.0080504681679148
  0.2066722678958903  0.0789479877583466  0.4892323884677767
  0.7927639893750806  0.9242098781086153  0.4927664425497345
  0.7072719693288257  0.4226089681020905  0.4917355872582211
  0.2931039288725162  0.5758582203217589  0.4900014613240705
  0.2726162225553184  0.2169252596977616  0.2483577334434985
  0.7271503912002594  0.7846143518979490  0.2485503951677406
  0.7728116449898049  0.2839726546105293  0.2484718271629233
  0.2294012818505729  0.7151832299965657  0.2486261319689616
  0.2748524989903641  0.2236410479995604  0.7486250651519465
  0.7209531775450476  0.7723084137801329  0.7482980608762291
  0.7826074721658545  0.2717656976191159  0.7483151204575847
  0.2259678576319368  0.7270367910882019  0.7485568281365791
  0.3396067866635421  0.9974238106526158  0.2495490364260721
  0.6623239615878986  0.0032925914106046  0.2495800492419618
  0.8377156915158958  0.5016249777609301  0.2496109934049882
  0.1619325083532837  0.4956430504363064  0.2494287302997712
  0.3497061645225718  0.9887035039063929  0.7497379767301595
  0.6521095755652402  0.0109673455430561  0.7499444616348634
  0.8476846972468127  0.5078863027797818  0.7484448915174348
  0.1510332637768676  0.4875910705175570  0.7487851840760125
  0.5162395894780616  0.1570413271795680  0.2507931620946380
  0.4847145474022550  0.8433661630633953  0.2512407311307811
  0.0148057469313063  0.3428622588670235  0.2507176648067487
  0.9798860992311430  0.6536942642804412  0.2498360940766238
  0.5051237411946559  0.1527224786096341  0.7502456836334529
  0.4974935409054237  0.8465226447833946  0.7501775151451009
  0.0001674637581612  0.3439344375450664  0.7496127985353662
  0.9921445978495811  0.6513857489007342  0.7500434269740633
  0.3576099386654307  0.4332137034493578  0.2483786560782759
  0.6428486523715681  0.5664168595870256  0.2484821094700593
  0.8568632156818445  0.0675501940274726  0.2485464035384375
  0.1440303023181536  0.9379160414229396  0.2497250518378981
  0.1428369983819518  0.9375858545979876  0.7482594171349976
  0.8608197871308942  0.0716762811578425  0.7483806226543142
  0.6399357077028212  0.5682839393165632  0.7480590391536512
  0.3591685998286854  0.4329091438618535  0.7481256963995833
  0.5711219188572427  0.3662388005814828  0.2494047815349940
  0.4298762422989310  0.6333921233499641  0.2494973407048924
  0.0699082296864957  0.1360636496943022  0.2495225815568692
  0.9275000851360868  0.8664361774477851  0.2496583836024939
  0.0610198799588557  0.1465238742962345  0.7501698610743296
  0.9317936756815939  0.8560238463395807  0.7499364028297988
  0.5682444904006563  0.3555905666046077  0.7515936903986491
  0.4346951885801462  0.6439270274145076  0.7515466342645244
 
  0.00000000E+00  0.00000000E+00  0.00000000E+00
  0.00000000E+00  0.00000000E+00  0.00000000E+00
  0.00000000E+00  0.00000000E+00  0.00000000E+00
  0.00000000E+00  0.00000000E+00  0.00000000E+00
  0.00000000E+00  0.00000000E+00  0.00000000E+00
  0.00000000E+00  0.00000000E+00  0.00000000E+00
  0.00000000E+00  0.00000000E+00  0.00000000E+00
  0.00000000E+00  0.00000000E+00  0.00000000E+00
  0.00000000E+00  0.00000000E+00  0.00000000E+00
  0.00000000E+00  0.00000000E+00  0.00000000E+00
  0.00000000E+00  0.00000000E+00  0.00000000E+00
  0.00000000E+00  0.00000000E+00  0.00000000E+00
  0.00000000E+00  0.00000000E+00  0.00000000E+00
  0.00000000E+00  0.00000000E+00  0.00000000E+00
  0.00000000E+00  0.00000000E+00  0.00000000E+00
  0.00000000E+00  0.00000000E+00  0.00000000E+00
  0.00000000E+00  0.00000000E+00  0.00000000E+00
  0.00000000E+00  0.00000000E+00  0.00000000E+00
  0.00000000E+00  0.00000000E+00  0.00000000E+00
  0.00000000E+00  0.00000000E+00  0.00000000E+00
  0.00000000E+00  0.00000000E+00  0.00000000E+00
  0.00000000E+00  0.00000000E+00  0.00000000E+00
  0.00000000E+00  0.00000000E+00  0.00000000E+00
  0.00000000E+00  0.00000000E+00  0.00000000E+00
  0.00000000E+00  0.00000000E+00  0.00000000E+00
  0.00000000E+00  0.00000000E+00  0.00000000E+00
  0.00000000E+00  0.00000000E+00  0.00000000E+00
  0.00000000E+00  0.00000000E+00  0.00000000E+00
  0.00000000E+00  0.00000000E+00  0.00000000E+00
  0.00000000E+00  0.00000000E+00  0.00000000E+00
  0.00000000E+00  0.00000000E+00  0.00000000E+00
  0.00000000E+00  0.00000000E+00  0.00000000E+00
  0.00000000E+00  0.00000000E+00  0.00000000E+00
  0.00000000E+00  0.00000000E+00  0.00000000E+00
  0.00000000E+00  0.00000000E+00  0.00000000E+00
  0.00000000E+00  0.00000000E+00  0.00000000E+00
  0.00000000E+00  0.00000000E+00  0.00000000E+00
  0.00000000E+00  0.00000000E+00  0.00000000E+00
  0.00000000E+00  0.00000000E+00  0.00000000E+00
  0.00000000E+00  0.00000000E+00  0.00000000E+00
  0.00000000E+00  0.00000000E+00  0.00000000E+00
  0.00000000E+00  0.00000000E+00  0.00000000E+00
  0.00000000E+00  0.00000000E+00  0.00000000E+00
  0.00000000E+00  0.00000000E+00  0.00000000E+00
  0.00000000E+00  0.00000000E+00  0.00000000E+00
  0.00000000E+00  0.00000000E+00  0.00000000E+00
  0.00000000E+00  0.00000000E+00  0.00000000E+00
  0.00000000E+00  0.00000000E+00  0.00000000E+00
  0.00000000E+00  0.00000000E+00  0.00000000E+00
  0.00000000E+00  0.00000000E+00  0.00000000E+00
  0.00000000E+00  0.00000000E+00  0.00000000E+00
  0.00000000E+00  0.00000000E+00  0.00000000E+00
  0.00000000E+00  0.00000000E+00  0.00000000E+00
  0.00000000E+00  0.00000000E+00  0.00000000E+00
  0.00000000E+00  0.00000000E+00  0.00000000E+00
  0.00000000E+00  0.00000000E+00  0.00000000E+00
  0.00000000E+00  0.00000000E+00  0.00000000E+00
  0.00000000E+00  0.00000000E+00  0.00000000E+00
  0.00000000E+00  0.00000000E+00  0.00000000E+00
  0.00000000E+00  0.00000000E+00  0.00000000E+00
  0.00000000E+00  0.00000000E+00  0.00000000E+00
  0.00000000E+00  0.00000000E+00  0.00000000E+00
  0.00000000E+00  0.00000000E+00  0.00000000E+00
  0.00000000E+00  0.00000000E+00  0.00000000E+00
  0.00000000E+00  0.00000000E+00  0.00000000E+00
  0.00000000E+00  0.00000000E+00  0.00000000E+00
  0.00000000E+00  0.00000000E+00  0.00000000E+00
  0.00000000E+00  0.00000000E+00  0.00000000E+00
  0.00000000E+00  0.00000000E+00  0.00000000E+00
  0.00000000E+00  0.00000000E+00  0.00000000E+00
  0.00000000E+00  0.00000000E+00  0.00000000E+00
  0.00000000E+00  0.00000000E+00  0.00000000E+00
  0.00000000E+00  0.00000000E+00  0.00000000E+00
  0.00000000E+00  0.00000000E+00  0.00000000E+00
  0.00000000E+00  0.00000000E+00  0.00000000E+00
  0.00000000E+00  0.00000000E+00  0.00000000E+00
  0.00000000E+00  0.00000000E+00  0.00000000E+00
  0.00000000E+00  0.00000000E+00  0.00000000E+00
  0.00000000E+00  0.00000000E+00  0.00000000E+00
  0.00000000E+00  0.00000000E+00  0.00000000E+00
  0.00000000E+00  0.00000000E+00  0.00000000E+00
  0.00000000E+00  0.00000000E+00  0.00000000E+00
  0.00000000E+00  0.00000000E+00  0.00000000E+00
  0.00000000E+00  0.00000000E+00  0.00000000E+00
  0.00000000E+00  0.00000000E+00  0.00000000E+00
  0.00000000E+00  0.00000000E+00  0.00000000E+00
  0.00000000E+00  0.00000000E+00  0.00000000E+00
  0.00000000E+00  0.00000000E+00  0.00000000E+00
  0.00000000E+00  0.00000000E+00  0.00000000E+00
  0.00000000E+00  0.00000000E+00  0.00000000E+00
  0.00000000E+00  0.00000000E+00  0.00000000E+00
  0.00000000E+00  0.00000000E+00  0.00000000E+00
