Iron fluoride                           
   1.00000000000000     
     4.6808461884787018    0.0000041904338020    0.0000000291822651
     0.0000041921027044    4.6812446221707305    0.0000000061714126
     0.0000000091486768    0.0000000111853784    3.2962246427926511
   Fe   F 
     2     4
Direct
  0.0000412809466894  0.0000083934795683  0.0000000018191670
  0.5000415939616545  0.4999915647853115  0.5000000027580356
  0.3008864325172738  0.3008854780092847  0.9999999885967341
  0.6990721471273531  0.6990667211196566  0.0000000084095646
  0.1990718816381758  0.8009333399666687  0.4999999982605772
  0.8008866638088534  0.1991145026395102  0.5000000001559286
 
  0.00000000E+00  0.00000000E+00  0.00000000E+00
  0.00000000E+00  0.00000000E+00  0.00000000E+00
  0.00000000E+00  0.00000000E+00  0.00000000E+00
  0.00000000E+00  0.00000000E+00  0.00000000E+00
  0.00000000E+00  0.00000000E+00  0.00000000E+00
  0.00000000E+00  0.00000000E+00  0.00000000E+00
