Na4 Fe4 F16                             
   1.00000000000000     
     7.4792115900924614    0.0000011129659671    0.0204937039096102
     0.0000007916968627    5.2717168032727271   -0.0000008559197525
    -1.5458161844066802   -0.0000014654264262    7.6562985252332574
   Na   Fe   F 
     4     4    16
Direct
  0.1158460342134617  0.2184936953648133  0.3609833533356763
  0.3841509838246964  0.7184908208042771  0.6390139605820622
  0.8841509873908393  0.7815089632896814  0.6390130809792396
  0.6158460439826428  0.2815064596065397  0.3609826942784267
  0.3011853022043383  0.7431127888609979  0.1730000670073224
  0.1988256253202323  0.2431089674662203  0.8270061247526854
  0.6988252390243161  0.2568910024571238  0.8270054187115221
  0.8011848913374493  0.7568872539322413  0.1729993399784817
  0.8779489392729118  0.4718979014492177  0.3100280417477066
  0.6220454573681167  0.9719056930766783  0.6899691869638289
  0.1220455952890234  0.5280939335662396  0.6899694758451105
  0.3779490805462800  0.0281024765603703  0.3100283181276069
  0.8140603514284095  0.9569450582647292  0.3761387465671291
  0.6859414587377799  0.4569412953267786  0.6238607588385676
  0.1859416860480181  0.0430586480400876  0.6238610351720766
  0.3140605576017919  0.5430550309712743  0.3761390518018217
  0.0507856210333131  0.8594416669051981  0.1683710959228080
  0.4492144622831731  0.3594451044981923  0.8316277394065565
  0.9492144312049362  0.1405551927756576  0.8316276947524415
  0.5507855934729591  0.6405580355415523  0.1683710623546659
  0.2067641470867230  0.4379133755755831  0.0414511941596416
  0.2932318880398839  0.9379098381280073  0.9585509430605015
  0.7932316725506965  0.5620900650397402  0.9585506529835186
  0.7067639317380170  0.0620867154988076  0.0414509026705900
 
  0.00000000E+00  0.00000000E+00  0.00000000E+00
  0.00000000E+00  0.00000000E+00  0.00000000E+00
  0.00000000E+00  0.00000000E+00  0.00000000E+00
  0.00000000E+00  0.00000000E+00  0.00000000E+00
  0.00000000E+00  0.00000000E+00  0.00000000E+00
  0.00000000E+00  0.00000000E+00  0.00000000E+00
  0.00000000E+00  0.00000000E+00  0.00000000E+00
  0.00000000E+00  0.00000000E+00  0.00000000E+00
  0.00000000E+00  0.00000000E+00  0.00000000E+00
  0.00000000E+00  0.00000000E+00  0.00000000E+00
  0.00000000E+00  0.00000000E+00  0.00000000E+00
  0.00000000E+00  0.00000000E+00  0.00000000E+00
  0.00000000E+00  0.00000000E+00  0.00000000E+00
  0.00000000E+00  0.00000000E+00  0.00000000E+00
  0.00000000E+00  0.00000000E+00  0.00000000E+00
  0.00000000E+00  0.00000000E+00  0.00000000E+00
  0.00000000E+00  0.00000000E+00  0.00000000E+00
  0.00000000E+00  0.00000000E+00  0.00000000E+00
  0.00000000E+00  0.00000000E+00  0.00000000E+00
  0.00000000E+00  0.00000000E+00  0.00000000E+00
  0.00000000E+00  0.00000000E+00  0.00000000E+00
  0.00000000E+00  0.00000000E+00  0.00000000E+00
  0.00000000E+00  0.00000000E+00  0.00000000E+00
  0.00000000E+00  0.00000000E+00  0.00000000E+00
