Na4 Fe4 F16
1.0
        7.6379327774         0.0000000000         0.0000000000
        0.0000000000         5.4137201309         0.0000000000
       -1.6000478449         0.0000000000         7.8107398271
   Na   Fe    F
    4    4   16
Direct
     0.115276001         0.220734999         0.358043998
     0.384723991         0.720735013         0.641955972
     0.884724021         0.779264987         0.641955972
     0.615275979         0.279264987         0.358043998
     0.301863998         0.743119001         0.172125995
     0.198136002         0.243119001         0.827874005
     0.698135972         0.256880999         0.827874005
     0.801864028         0.756880999         0.172125995
     0.877955973         0.475937009         0.308894992
     0.622044027         0.975937009         0.691105008
     0.122043997         0.524062991         0.691105008
     0.377956003         0.024063000         0.308894992
     0.813618004         0.953458011         0.374035001
     0.686381996         0.453458011         0.625964999
     0.186381996         0.046542000         0.625964999
     0.313618004         0.546541989         0.374035001
     0.051313002         0.858851016         0.168834999
     0.448686987         0.358850986         0.831165016
     0.948687017         0.141148999         0.831165016
     0.551312983         0.641148984         0.168834999
     0.207895994         0.437927991         0.041611001
     0.292104006         0.937928021         0.958388984
     0.792104006         0.562071979         0.958388984
     0.707895994         0.062072001         0.041611001
