Fe4 H16 N4 F12                          
   1.00000000000000     
     5.8081806784420165    0.0008244643882661   -0.0003242611587570
     0.0027383301813237    8.4727339281707170   -0.0010177863794166
    -0.0000675998900452   -0.0003295283368638    5.8054248236012853
   Fe   H    N    F 
     4    16     4    12
Direct
  0.4974115218504522  0.9999847714830423  0.0001045492819856
  0.5026176594233505  0.5001313809102257  0.9999926656985352
  0.9974350318923442  0.0001377489980499  0.4998912263178426
  0.0026225134074309  0.5002456669113755  0.5001309890790679
  0.5775425453770495  0.1515477716522042  0.4263292292235334
  0.5414212762813904  0.2496639937758900  0.6769468638531535
  0.3320969664112923  0.2503059987410694  0.4821667757229307
  0.5782947050250371  0.3484001521216200  0.4274102645596329
  0.8320862840161354  0.2502402285252572  0.0181876152669034
  0.0782993696991454  0.3484065941137331  0.0728157330586470
  0.0412004490336102  0.2496366846867701  0.8231670889461995
  0.0775771128179983  0.1515808797314122  0.0738548996657400
  0.4584821833686874  0.7497421462308509  0.3230934539877168
  0.6678805989896546  0.7503378577805151  0.5178838438832543
  0.4214912620325606  0.8485259214627661  0.5727269204007825
  0.4225940640646826  0.6516156114796487  0.5736205022671612
  0.1678711218158782  0.7503190056293008  0.9816538104484849
  0.9586470631070227  0.7498006632998155  0.1766572835712523
  0.9225711988022951  0.6516087537334272  0.9260964369508571
  0.9213961313955252  0.8484813537554174  0.9269413487258475
  0.5078361445948261  0.2499693274527459  0.5030487055739030
  0.0078174431440416  0.2499699907594177  0.9971080503010299
  0.9921081763599418  0.7500676740616257  0.0027670942548284
  0.4921085585646026  0.7500748754984414  0.4969621455210245
  0.5236141822078793  0.2499943497136030  0.9854709992276298
  0.0237178748799920  0.2501528628592382  0.5145151821713014
  0.2746268179560616  0.9923547591488102  0.7371630383719534
  0.2788605664284418  0.5074266007780182  0.7372158318368349
  0.7786541987340669  0.5072893466809134  0.7627419124246160
  0.7745979454132979  0.9922702482540018  0.7628193668397927
  0.7210489213577915  0.0073934735160179  0.2626573339923297
  0.7255764563901295  0.4924444848495284  0.2629872403572762
  0.4764276647294707  0.7499984250052236  0.0144406333556120
  0.2209613700208379  0.0074839725654670  0.2374205202255482
  0.2255762387150284  0.4924797817494166  0.2370814153522147
  0.9763126826739139  0.7499704670691401  0.4854473961498655
 
  0.00000000E+00  0.00000000E+00  0.00000000E+00
  0.00000000E+00  0.00000000E+00  0.00000000E+00
  0.00000000E+00  0.00000000E+00  0.00000000E+00
  0.00000000E+00  0.00000000E+00  0.00000000E+00
  0.00000000E+00  0.00000000E+00  0.00000000E+00
  0.00000000E+00  0.00000000E+00  0.00000000E+00
  0.00000000E+00  0.00000000E+00  0.00000000E+00
  0.00000000E+00  0.00000000E+00  0.00000000E+00
  0.00000000E+00  0.00000000E+00  0.00000000E+00
  0.00000000E+00  0.00000000E+00  0.00000000E+00
  0.00000000E+00  0.00000000E+00  0.00000000E+00
  0.00000000E+00  0.00000000E+00  0.00000000E+00
  0.00000000E+00  0.00000000E+00  0.00000000E+00
  0.00000000E+00  0.00000000E+00  0.00000000E+00
  0.00000000E+00  0.00000000E+00  0.00000000E+00
  0.00000000E+00  0.00000000E+00  0.00000000E+00
  0.00000000E+00  0.00000000E+00  0.00000000E+00
  0.00000000E+00  0.00000000E+00  0.00000000E+00
  0.00000000E+00  0.00000000E+00  0.00000000E+00
  0.00000000E+00  0.00000000E+00  0.00000000E+00
  0.00000000E+00  0.00000000E+00  0.00000000E+00
  0.00000000E+00  0.00000000E+00  0.00000000E+00
  0.00000000E+00  0.00000000E+00  0.00000000E+00
  0.00000000E+00  0.00000000E+00  0.00000000E+00
  0.00000000E+00  0.00000000E+00  0.00000000E+00
  0.00000000E+00  0.00000000E+00  0.00000000E+00
  0.00000000E+00  0.00000000E+00  0.00000000E+00
  0.00000000E+00  0.00000000E+00  0.00000000E+00
  0.00000000E+00  0.00000000E+00  0.00000000E+00
  0.00000000E+00  0.00000000E+00  0.00000000E+00
  0.00000000E+00  0.00000000E+00  0.00000000E+00
  0.00000000E+00  0.00000000E+00  0.00000000E+00
  0.00000000E+00  0.00000000E+00  0.00000000E+00
  0.00000000E+00  0.00000000E+00  0.00000000E+00
  0.00000000E+00  0.00000000E+00  0.00000000E+00
  0.00000000E+00  0.00000000E+00  0.00000000E+00
