Fe4 H16 N4 F12                          
   1.00000000000000     
     5.8252741706638052   -0.0005280988401530   -0.0009578983192618
     0.0004302798705354    8.4409626641196862   -0.0003783656078545
    -0.0007966231989484    0.0001412078663831    5.7685789366405071
   Fe   H    N    F 
     4    16     4    12
Direct
  0.4965956572047697  0.0003000227568909  0.0010634473619403
  0.5035544620001546  0.5003347647342460 -0.0008292062239822
 -0.0035444852536291  0.0003530649249102  0.4990441573498507
  0.0035617659329869  0.5004201338023371  0.5006761221693766
  0.5774304692946135  0.1511491366214546  0.4254935493867976
  0.5426556480894634  0.2494735868253200  0.6777862735841471
  0.3330476842893239  0.2503143938809702  0.4820850790250005
  0.5783960429299831  0.3488792658985657  0.4262018889900926
  0.8330459170274715  0.2503235603922326  0.0182809001939682
  0.0783171344574380  0.3488233311962706  0.0738974864242305
  0.0423768478948765  0.2494864132819726  0.8226854999397871
  0.0775279896246793  0.1511693664913162  0.0746617265298375
  0.4573237926470015  0.7495733722574266  0.3222335836467538
  0.6668945648292681  0.7503127770919567  0.5179573016836881
  0.4214945422281149  0.8488590086335301  0.5738534064068757
  0.4225962169917407  0.6511160954166582  0.5746499318272841
  0.1667358775418993  0.7503376179991800 -0.0184447090149326
  0.9576016847249564  0.7496007728606024  0.1773339094769487
  0.9225710050738583  0.6510948556947871  0.9250540579103548
  0.9215412672166721  0.8487938870684860  0.9258876146938763
  0.5082465533205600  0.2500141556945443  0.5027677116951285
  0.0082012833768750  0.2499939526181325  0.9974934067724567
  0.9916621099181880  0.7499766557757932  0.0024005218062616
  0.4916920955580301  0.7499998124093522  0.4972571500323708
  0.5237340096980296  0.2501256059806399 -0.0145492018488481
  0.0237359144350453  0.2501069073693197  0.5148715021076041
  0.2735369400784825 -0.0074191797575688  0.7371152428442476
  0.2779790281896852  0.5071773471162030  0.7374659727821261
  0.7783327815646229  0.5070624069494580  0.7624344641431501
  0.7734696092550616 -0.0073953984842284  0.7628327202272197
  0.7218884501432469  0.0071773870610393  0.2624299637197806
  0.7262969358523712  0.4925904560424725  0.2628199679476672
  0.4762267175570618  0.7500795144838184  0.0145775892624921
  0.2218480118611731  0.0071040579498137  0.2376189187108513
  0.2266592602321801  0.4925816113678797  0.2371208093511716
  0.9761505151956009  0.7501631045782082  0.4852896059497266
 
  0.00000000E+00  0.00000000E+00  0.00000000E+00
  0.00000000E+00  0.00000000E+00  0.00000000E+00
  0.00000000E+00  0.00000000E+00  0.00000000E+00
  0.00000000E+00  0.00000000E+00  0.00000000E+00
  0.00000000E+00  0.00000000E+00  0.00000000E+00
  0.00000000E+00  0.00000000E+00  0.00000000E+00
  0.00000000E+00  0.00000000E+00  0.00000000E+00
  0.00000000E+00  0.00000000E+00  0.00000000E+00
  0.00000000E+00  0.00000000E+00  0.00000000E+00
  0.00000000E+00  0.00000000E+00  0.00000000E+00
  0.00000000E+00  0.00000000E+00  0.00000000E+00
  0.00000000E+00  0.00000000E+00  0.00000000E+00
  0.00000000E+00  0.00000000E+00  0.00000000E+00
  0.00000000E+00  0.00000000E+00  0.00000000E+00
  0.00000000E+00  0.00000000E+00  0.00000000E+00
  0.00000000E+00  0.00000000E+00  0.00000000E+00
  0.00000000E+00  0.00000000E+00  0.00000000E+00
  0.00000000E+00  0.00000000E+00  0.00000000E+00
  0.00000000E+00  0.00000000E+00  0.00000000E+00
  0.00000000E+00  0.00000000E+00  0.00000000E+00
  0.00000000E+00  0.00000000E+00  0.00000000E+00
  0.00000000E+00  0.00000000E+00  0.00000000E+00
  0.00000000E+00  0.00000000E+00  0.00000000E+00
  0.00000000E+00  0.00000000E+00  0.00000000E+00
  0.00000000E+00  0.00000000E+00  0.00000000E+00
  0.00000000E+00  0.00000000E+00  0.00000000E+00
  0.00000000E+00  0.00000000E+00  0.00000000E+00
  0.00000000E+00  0.00000000E+00  0.00000000E+00
  0.00000000E+00  0.00000000E+00  0.00000000E+00
  0.00000000E+00  0.00000000E+00  0.00000000E+00
  0.00000000E+00  0.00000000E+00  0.00000000E+00
  0.00000000E+00  0.00000000E+00  0.00000000E+00
  0.00000000E+00  0.00000000E+00  0.00000000E+00
  0.00000000E+00  0.00000000E+00  0.00000000E+00
  0.00000000E+00  0.00000000E+00  0.00000000E+00
  0.00000000E+00  0.00000000E+00  0.00000000E+00
