Sodium iron fluoride (0.58/1/3)         
   1.00000000000000     
    12.2581469187022467   -0.1058733611841797   -0.0158130280569017
    -0.3678434330743289   12.2357575966681722    0.0003379190026804
    -0.0000908398823624    0.0034657290248377    3.9230799950652662
   Fe   Na   F 
    10     6    30
Direct
  0.4988779028622119  0.0001744989178718  0.6135967422430326
  0.0006759477566121  0.4991087690986973  0.4747331716296799
  0.2148085944046514  0.0949761828168505  0.4755161699818160
  0.7845124728878474  0.9067272456460316  0.4854875039757118
  0.9213083590716593  0.1985715625453821  0.4701384617351323
  0.0786500257974865  0.7988455471470957  0.4646214244789704
  0.2981407565264931  0.5813016323842675  0.4861649415478695
  0.7027441666620717  0.4183418705846833  0.4854296487288252
  0.5946187727101986  0.7125315283950044  0.4943972886258052
  0.4053675344858831  0.2878593464014330  0.4880905073362669
  0.1521595282950372  0.3348264726503416  0.9688215830887046
  0.8496796699958651  0.6778083791668550  0.9851464908789822
  0.6715720552598441  0.1715160245561407  0.1525652273719729
  0.3252087069476559  0.8287015443971910  0.1515390348610666
  0.0074309044766352  0.9975789989398862  0.9779911491918298
  0.5015026633005562  0.5017330618297393  0.9920060287574870
  0.1819160296278284  0.9246462142436656  0.4302105158960146
  0.8154832663622571  0.0762365134549086  0.4378814228134402
  0.0419948223475330  0.1002118259541476  0.4747009377475280
  0.9566944757020437  0.8985019966993306  0.4753648934607497
  0.3970190361647497  0.4625468474531615  0.4874260815611962
  0.6043816436314842  0.5384754501685336  0.4901078964441439
  0.4225329622643628  0.6830583573013485  0.4602117702981587
  0.5772761159011850  0.3175325797222257  0.4571590182800520
  0.2371996034335169  0.2645028633139503  0.4734425236791893
  0.7625027095549370  0.7364172564532439  0.4848930499891821
  0.7902094383406819  0.2889759115044015  0.4659880476058760
  0.2108939409559056  0.7093567501784079  0.4651555608228009
  0.3873134637979234  0.8921467657494873  0.6512682435363928
  0.6096135294761567  0.1089946890828131  0.6514741953164389
  0.0176928363142466  0.3271850983209248  0.4696941604320060
  0.9816113979196004  0.6698389207164155  0.4635218796853877
  0.1724496470396844  0.4849664341037183  0.4827945790311432
  0.8298786376133123  0.5125179765480397  0.4812168993674533
  0.6087124029780355  0.8881049317998304  0.5542214842587114
  0.3894346684375662  0.1131410951446128  0.5519832497105952
  0.4988084571354960  0.0005132740686662  0.1135491379030924
  0.0053155428554490  0.4958988037795891  0.9747285629660212
  0.1969700674448021  0.0944572726428490  0.9751822371992134
  0.7995289698582511  0.9024685285429044  0.9846017893641275
  0.9232425895127250  0.1928485500408712  0.9678923828302644
  0.0759963455544792  0.8049382797981366  0.9633104433385853
  0.3063491718930536  0.5808003441164118  0.9825118445269254
  0.6931173467575462  0.4185301776937891  0.9821145963359115
  0.5871404364474202  0.6941055302738661  0.9936079351086207
  0.4114624342370234  0.3074781466523504  0.9875392860577819
 
  0.00000000E+00  0.00000000E+00  0.00000000E+00
  0.00000000E+00  0.00000000E+00  0.00000000E+00
  0.00000000E+00  0.00000000E+00  0.00000000E+00
  0.00000000E+00  0.00000000E+00  0.00000000E+00
  0.00000000E+00  0.00000000E+00  0.00000000E+00
  0.00000000E+00  0.00000000E+00  0.00000000E+00
  0.00000000E+00  0.00000000E+00  0.00000000E+00
  0.00000000E+00  0.00000000E+00  0.00000000E+00
  0.00000000E+00  0.00000000E+00  0.00000000E+00
  0.00000000E+00  0.00000000E+00  0.00000000E+00
  0.00000000E+00  0.00000000E+00  0.00000000E+00
  0.00000000E+00  0.00000000E+00  0.00000000E+00
  0.00000000E+00  0.00000000E+00  0.00000000E+00
  0.00000000E+00  0.00000000E+00  0.00000000E+00
  0.00000000E+00  0.00000000E+00  0.00000000E+00
  0.00000000E+00  0.00000000E+00  0.00000000E+00
  0.00000000E+00  0.00000000E+00  0.00000000E+00
  0.00000000E+00  0.00000000E+00  0.00000000E+00
  0.00000000E+00  0.00000000E+00  0.00000000E+00
  0.00000000E+00  0.00000000E+00  0.00000000E+00
  0.00000000E+00  0.00000000E+00  0.00000000E+00
  0.00000000E+00  0.00000000E+00  0.00000000E+00
  0.00000000E+00  0.00000000E+00  0.00000000E+00
  0.00000000E+00  0.00000000E+00  0.00000000E+00
  0.00000000E+00  0.00000000E+00  0.00000000E+00
  0.00000000E+00  0.00000000E+00  0.00000000E+00
  0.00000000E+00  0.00000000E+00  0.00000000E+00
  0.00000000E+00  0.00000000E+00  0.00000000E+00
  0.00000000E+00  0.00000000E+00  0.00000000E+00
  0.00000000E+00  0.00000000E+00  0.00000000E+00
  0.00000000E+00  0.00000000E+00  0.00000000E+00
  0.00000000E+00  0.00000000E+00  0.00000000E+00
  0.00000000E+00  0.00000000E+00  0.00000000E+00
  0.00000000E+00  0.00000000E+00  0.00000000E+00
  0.00000000E+00  0.00000000E+00  0.00000000E+00
  0.00000000E+00  0.00000000E+00  0.00000000E+00
  0.00000000E+00  0.00000000E+00  0.00000000E+00
  0.00000000E+00  0.00000000E+00  0.00000000E+00
  0.00000000E+00  0.00000000E+00  0.00000000E+00
  0.00000000E+00  0.00000000E+00  0.00000000E+00
  0.00000000E+00  0.00000000E+00  0.00000000E+00
  0.00000000E+00  0.00000000E+00  0.00000000E+00
  0.00000000E+00  0.00000000E+00  0.00000000E+00
  0.00000000E+00  0.00000000E+00  0.00000000E+00
  0.00000000E+00  0.00000000E+00  0.00000000E+00
  0.00000000E+00  0.00000000E+00  0.00000000E+00
