Sodium iron fluoride (0.58/1/3)         
   1.00000000000000     
    11.4896537804996921   -0.1161949062955577    0.0815554375291421
    -0.3528701483035489   11.5424163822920338   -0.1177376581694123
     0.0227371647515600   -0.0354188506391723    3.7900885705341287
   Fe   Na   F 
    10     6    30
Direct
  0.4900128403994894  0.9948713459214852  0.6283619074645608
  0.0118554820058471  0.4889258183004703  0.4782153851252675
  0.2342656219150361  0.0745883638258878  0.4392320756615422
  0.7832019173925070  0.9014207344488159  0.4515881851243347
  0.9126308903344770  0.1793678785850089  0.4599353441957582
  0.0739393326339620  0.8040128446206500  0.4226773940826989
  0.3055518695223183  0.6055759716320711  0.5548811612900975
  0.7015121760554215  0.4164844614453655  0.5327998093805144
  0.6001113002101579  0.7157408894670664  0.5326411099421995
  0.3943560859492654  0.2984017243806498  0.4951476301536479
  0.1304403821675955  0.2897801348009383  0.9696530988927814
  0.8604382492256351  0.6707495222578804  0.9510739132678242
  0.6577779700620815  0.1839326303152878  0.1720615525182824
  0.3355883546062131  0.8182028089792655  0.0864947343522513
  0.0167759066669744  0.0027846535624944  0.9531384097449866
  0.4998924939131331  0.5042357235997564  0.0324881972079056
  0.1746624059057924  0.9201009684956658  0.1879720418605312
  0.7949965556306610  0.0653948544848553  0.2909987259618271
  0.0638227805542586  0.1029418952581369  0.4540187248021765
  0.9572774946106348  0.9188775006282066  0.4536778313290277
  0.3994579304226061  0.4636156864988030  0.5268419441868492
  0.5974688456954410  0.5445786863078206  0.5342313226779567
  0.4335671149515831  0.7430775021910172  0.5557554844861822
  0.5616364277088253  0.3110110616431075  0.4940455223209630
  0.2328186851545050  0.2722965695936359  0.4691141825401525
  0.7709612038263847  0.7144783319558019  0.4573067519667438
  0.7789597655544613  0.2726110109296626  0.5693793708618109
  0.2136710150868901  0.7468169585467154  0.5936252955074052
  0.3309033526492980  0.9425113748046483  0.6458600517927797
  0.6123266257294421  0.1029389090545742  0.6940298183306634
  0.0163699097614780  0.3257186706662051  0.4706607888951224
  0.9959666597487720  0.6516931886689005  0.4325956356328595
  0.1746860326113038  0.4904134147428312  0.4677460762093404
  0.8466027114497239  0.5045811349810401  0.5304681676321674
  0.6131596268559437  0.8840338841084691  0.5860652756753274
  0.4118552298754674  0.1318656747703463  0.4346359673038190
  0.4856165148308166  0.9526234767438575  0.1202354855967329
  0.0099062045373259  0.4843034225185062  0.9778098870169911
  0.2268931668890709  0.1220421390921521  0.9434924707376832
  0.8001268393887961  0.8669678491328214  0.9499567821186151
  0.9498556765665213  0.1873669766617000  0.9585461969174751
  0.0212189786985397  0.7903715348021196  0.9296614233257260
  0.3363631534846486  0.6144835845140878  0.0517406392055983
  0.6855550256235325  0.4202947304058117  0.0329146776248285
  0.5894811681074581  0.6931144199911005  0.0311876962972519
  0.4054620760296547  0.3097991326643917 -0.0049641472191468
 
  0.00000000E+00  0.00000000E+00  0.00000000E+00
  0.00000000E+00  0.00000000E+00  0.00000000E+00
  0.00000000E+00  0.00000000E+00  0.00000000E+00
  0.00000000E+00  0.00000000E+00  0.00000000E+00
  0.00000000E+00  0.00000000E+00  0.00000000E+00
  0.00000000E+00  0.00000000E+00  0.00000000E+00
  0.00000000E+00  0.00000000E+00  0.00000000E+00
  0.00000000E+00  0.00000000E+00  0.00000000E+00
  0.00000000E+00  0.00000000E+00  0.00000000E+00
  0.00000000E+00  0.00000000E+00  0.00000000E+00
  0.00000000E+00  0.00000000E+00  0.00000000E+00
  0.00000000E+00  0.00000000E+00  0.00000000E+00
  0.00000000E+00  0.00000000E+00  0.00000000E+00
  0.00000000E+00  0.00000000E+00  0.00000000E+00
  0.00000000E+00  0.00000000E+00  0.00000000E+00
  0.00000000E+00  0.00000000E+00  0.00000000E+00
  0.00000000E+00  0.00000000E+00  0.00000000E+00
  0.00000000E+00  0.00000000E+00  0.00000000E+00
  0.00000000E+00  0.00000000E+00  0.00000000E+00
  0.00000000E+00  0.00000000E+00  0.00000000E+00
  0.00000000E+00  0.00000000E+00  0.00000000E+00
  0.00000000E+00  0.00000000E+00  0.00000000E+00
  0.00000000E+00  0.00000000E+00  0.00000000E+00
  0.00000000E+00  0.00000000E+00  0.00000000E+00
  0.00000000E+00  0.00000000E+00  0.00000000E+00
  0.00000000E+00  0.00000000E+00  0.00000000E+00
  0.00000000E+00  0.00000000E+00  0.00000000E+00
  0.00000000E+00  0.00000000E+00  0.00000000E+00
  0.00000000E+00  0.00000000E+00  0.00000000E+00
  0.00000000E+00  0.00000000E+00  0.00000000E+00
  0.00000000E+00  0.00000000E+00  0.00000000E+00
  0.00000000E+00  0.00000000E+00  0.00000000E+00
  0.00000000E+00  0.00000000E+00  0.00000000E+00
  0.00000000E+00  0.00000000E+00  0.00000000E+00
  0.00000000E+00  0.00000000E+00  0.00000000E+00
  0.00000000E+00  0.00000000E+00  0.00000000E+00
  0.00000000E+00  0.00000000E+00  0.00000000E+00
  0.00000000E+00  0.00000000E+00  0.00000000E+00
  0.00000000E+00  0.00000000E+00  0.00000000E+00
  0.00000000E+00  0.00000000E+00  0.00000000E+00
  0.00000000E+00  0.00000000E+00  0.00000000E+00
  0.00000000E+00  0.00000000E+00  0.00000000E+00
  0.00000000E+00  0.00000000E+00  0.00000000E+00
  0.00000000E+00  0.00000000E+00  0.00000000E+00
  0.00000000E+00  0.00000000E+00  0.00000000E+00
  0.00000000E+00  0.00000000E+00  0.00000000E+00
