Fe12 H12 N3 F36                         
   1.00000000000000     
     7.4226769387970997    0.0126686619562175    0.0831244249040806
     0.0724174694774877   12.6540748530260245   -0.1428859932116529
    -0.0619524814339405    0.0925210501879166    7.4696602968014405
   Fe   H    N    F 
    12    12     3    36
Direct
  0.7525382674994709  0.7514724674397246  0.9933087097197421
  0.2504420768036509  0.7503227926557189  0.9909838497301265
  0.7552463208190939  0.7511919547955460  0.4959993677698644
  0.2536177674275350  0.7473685015942411  0.4954206142701803
  0.9957766555373221  0.5007775673557342  0.9911504465830101
  0.0073839452773586  0.4972513764364065  0.4953848779704862
  0.7484343909571890  0.2489576666250843  0.4978847795199744
  0.2477274427578154  0.2468107605526905  0.4938046238988723
  0.5028341933824974  0.0002441745612107  0.9991919687203684
  0.4942049729410996  0.0005686414453264  0.4968572994841561
  0.7483465005334229  0.2517825267612414  0.9985138351743594
  0.2481022242666673  0.2503823239840458  0.9951984298584386
  0.8923189532761437  0.9778009891943802  0.3272360641432421
  0.0313998271944060  0.0608447991756862  0.2172129239580479
  0.0091032116190609  0.9298439001116408  0.1574580101556556
  0.1185163524871632  0.9620466730009520  0.3402918371502677
  0.1072787230302521  0.9880076829922223  0.8171557137100173
  0.9373625856393236  0.9245807249598791  0.7181581723909238
  0.8930153634889741  0.0309246840081199  0.8437551948492038
  0.9998633012212975  0.0506714243319569  0.6536300468224515
  0.4452200205078859  0.4888209332084443  0.1693001004293396
  0.3983419621247499  0.5300447201797576  0.3755846130298172
  0.5640568014065638  0.5885728297910072  0.2592213798386064
  0.5903391181566587  0.4635060521518959  0.3342106661883662
  0.5002037944998742  0.5176776937456391  0.2842760478396386
  0.0121526505944934  0.9848039121764978  0.2597705030334599
  0.9848301455313436  0.9977658280525253  0.7568222608644616
  0.4916008063116704  0.7191656708762377  0.9353024026235714
  0.0112912666136213  0.8024829565164247  0.0501051025521641
  0.1733644194553267  0.6055674025999481  0.9438345382222598
  0.8088889225333911  0.5985589854211488  0.9482348891478011
  0.6971043861552951  0.9069515227124493  0.0459570986390974
  0.3169354699937375  0.9009488490415670  0.0443301845790955
  0.5115714862785284  0.7212070076737274  0.5519075713301230
  0.9976653821663167  0.7887347113909075  0.4339227963612011
  0.2031612005162452  0.5897849871388187  0.5307160541257127
  0.8298060271339015  0.6060701044837257  0.5458309223535166
  0.6900919449460587  0.9019137473539642  0.4410869314792913
  0.3093710886096304  0.9041466095728766  0.4400557430444662
  0.9932845623443475  0.5365365385928734  0.2429162884219528
  0.9994398097700038  0.4543873419394566  0.7452178089838665
  0.5100494659130181  0.2863358833078468  0.4396690944916458
  0.9865236476740529  0.1999693705986837  0.5472061721264052
  0.1819005830365394  0.3935333443970527  0.4341484869123370
  0.8140435246584951  0.3949407887255814  0.4496215648354520
  0.3051321411699220  0.0969483656828825  0.5496847473619016
  0.6816665710484082  0.1024717984733610  0.5435631309537320
  0.5009797235666229  0.0455838186584877  0.2457848053904284
  0.5061151969534891  0.9610381199007212  0.7480659130901220
  0.4989655375775852  0.2807821497946523  0.0512374135612467
  0.9963633412898247  0.2125407308250049  0.9455143922819207
  0.1834450012232604  0.3961312364451326  0.0445172332489794
  0.8113439118709004  0.3946380699662796  0.0483232489327986
  0.3137145006592224  0.1018442217526536  0.9456510608091089
  0.6928392563962475  0.1039699465864481  0.9462546730061115
  0.7026320323768460  0.7077442125764708  0.2561104489480868
  0.2932532243009647  0.7099674852047085  0.2323245907862950
  0.2874827129463849  0.2827571527613089  0.7541455903744571
  0.7104992451610788  0.2828751041769603  0.7493987181773952
  0.2000381364329355  0.2053179160598670  0.2335468815819884
  0.8060749832623815  0.8012351917125944  0.7322444026777304
  0.7927240022669667  0.2115539251379403  0.2447031048302575
  0.2014975938745638  0.7942391072078081  0.7517154788193717
 
  0.00000000E+00  0.00000000E+00  0.00000000E+00
  0.00000000E+00  0.00000000E+00  0.00000000E+00
  0.00000000E+00  0.00000000E+00  0.00000000E+00
  0.00000000E+00  0.00000000E+00  0.00000000E+00
  0.00000000E+00  0.00000000E+00  0.00000000E+00
  0.00000000E+00  0.00000000E+00  0.00000000E+00
  0.00000000E+00  0.00000000E+00  0.00000000E+00
  0.00000000E+00  0.00000000E+00  0.00000000E+00
  0.00000000E+00  0.00000000E+00  0.00000000E+00
  0.00000000E+00  0.00000000E+00  0.00000000E+00
  0.00000000E+00  0.00000000E+00  0.00000000E+00
  0.00000000E+00  0.00000000E+00  0.00000000E+00
  0.00000000E+00  0.00000000E+00  0.00000000E+00
  0.00000000E+00  0.00000000E+00  0.00000000E+00
  0.00000000E+00  0.00000000E+00  0.00000000E+00
  0.00000000E+00  0.00000000E+00  0.00000000E+00
  0.00000000E+00  0.00000000E+00  0.00000000E+00
  0.00000000E+00  0.00000000E+00  0.00000000E+00
  0.00000000E+00  0.00000000E+00  0.00000000E+00
  0.00000000E+00  0.00000000E+00  0.00000000E+00
  0.00000000E+00  0.00000000E+00  0.00000000E+00
  0.00000000E+00  0.00000000E+00  0.00000000E+00
  0.00000000E+00  0.00000000E+00  0.00000000E+00
  0.00000000E+00  0.00000000E+00  0.00000000E+00
  0.00000000E+00  0.00000000E+00  0.00000000E+00
  0.00000000E+00  0.00000000E+00  0.00000000E+00
  0.00000000E+00  0.00000000E+00  0.00000000E+00
  0.00000000E+00  0.00000000E+00  0.00000000E+00
  0.00000000E+00  0.00000000E+00  0.00000000E+00
  0.00000000E+00  0.00000000E+00  0.00000000E+00
  0.00000000E+00  0.00000000E+00  0.00000000E+00
  0.00000000E+00  0.00000000E+00  0.00000000E+00
  0.00000000E+00  0.00000000E+00  0.00000000E+00
  0.00000000E+00  0.00000000E+00  0.00000000E+00
  0.00000000E+00  0.00000000E+00  0.00000000E+00
  0.00000000E+00  0.00000000E+00  0.00000000E+00
  0.00000000E+00  0.00000000E+00  0.00000000E+00
  0.00000000E+00  0.00000000E+00  0.00000000E+00
  0.00000000E+00  0.00000000E+00  0.00000000E+00
  0.00000000E+00  0.00000000E+00  0.00000000E+00
  0.00000000E+00  0.00000000E+00  0.00000000E+00
  0.00000000E+00  0.00000000E+00  0.00000000E+00
  0.00000000E+00  0.00000000E+00  0.00000000E+00
  0.00000000E+00  0.00000000E+00  0.00000000E+00
  0.00000000E+00  0.00000000E+00  0.00000000E+00
  0.00000000E+00  0.00000000E+00  0.00000000E+00
  0.00000000E+00  0.00000000E+00  0.00000000E+00
  0.00000000E+00  0.00000000E+00  0.00000000E+00
  0.00000000E+00  0.00000000E+00  0.00000000E+00
  0.00000000E+00  0.00000000E+00  0.00000000E+00
  0.00000000E+00  0.00000000E+00  0.00000000E+00
  0.00000000E+00  0.00000000E+00  0.00000000E+00
  0.00000000E+00  0.00000000E+00  0.00000000E+00
  0.00000000E+00  0.00000000E+00  0.00000000E+00
  0.00000000E+00  0.00000000E+00  0.00000000E+00
  0.00000000E+00  0.00000000E+00  0.00000000E+00
  0.00000000E+00  0.00000000E+00  0.00000000E+00
  0.00000000E+00  0.00000000E+00  0.00000000E+00
  0.00000000E+00  0.00000000E+00  0.00000000E+00
  0.00000000E+00  0.00000000E+00  0.00000000E+00
  0.00000000E+00  0.00000000E+00  0.00000000E+00
  0.00000000E+00  0.00000000E+00  0.00000000E+00
  0.00000000E+00  0.00000000E+00  0.00000000E+00
