Fe12 H12 N3 F36                         
   1.00000000000000     
     7.4230000000000000    0.0000000000000000    0.0000000000000000
     0.0000000000000000   12.7300000000000004    0.0000000000000000
     0.0000000000000000    0.0000000000000000    7.5259999999999998
   Fe   H    N    F 
    12    12     3    36
Direct
  0.7500000000000000  0.7500000000000000  0.0000000000000000   
  0.2500000000000000  0.7500000000000000  0.0000000000000000   
  0.7500000000000000  0.7500000000000000  0.5000000000000000   
  0.2500000000000000  0.7500000000000000  0.5000000000000000   
  0.0000000000000000  0.5000000000000000  0.0000000000000000   
  0.0000000000000000  0.5000000000000000  0.5000000000000000   
  0.7500000000000000  0.2500000000000000  0.5000000000000000   
  0.2500000000000000  0.2500000000000000  0.5000000000000000   
  0.5000000000000000  0.0000000000000000  0.0000000000000000  
  0.5000000000000000  0.0000000000000000  0.5000000000000000   
  0.7500000000000000  0.2500000000000000  0.0000000000000000   
  0.2500000000000000  0.2500000000000000  0.0000000000000000   
  0.8867395081607299  0.0457231891131258  0.2498395158849860   
  0.1132505111273332  0.0457459270306870  0.2502423649151950   
  0.9999748346334769  0.9497958419714578  0.1426226822385104   
  0.0000151499911212  0.9497647341388742  0.3573455118548026   
  0.1120424702667293  0.9541562358481883  0.7654546727010683   
  0.8880113765011330  0.9541296051565737  0.7345417765243738   
  0.9826919877231219  0.0501710292045132  0.8561057648700299   
  0.0172326454538521  0.0501817836059928  0.6438860856468267   
  0.5201566837282741  0.5102153534776903  0.1169187617120073   
  0.3654123525732089  0.5035449870088868  0.2785448310090999   
  0.5678377111605784  0.5564684656866135  0.3187259630599897   
  0.5461534441494820  0.4266208243114988  0.2864038917480656   
  0.5000000000000000  0.4994000000000014  0.2500000000000000   
  0.0000000000000000  0.9994000000000014  0.2500000000000000   
  0.0000000000000000  0.0005999999999986  0.7500000000000000   
  0.5000000000000000  0.7156000000000020  0.9489000000000019  
  0.0000000000000000  0.7843999999999980  0.0510999999999981   
  0.1876000000000033  0.6037999999999997  0.9566000000000017   
  0.8123999999999967  0.6037999999999997  0.9566000000000017  
  0.6876000000000033  0.8962000000000003  0.0433999999999983   
  0.3123999999999967  0.8962000000000003  0.0433999999999983   
  0.5000000000000000  0.7156000000000020  0.5510999999999981   
  0.0000000000000000  0.7843999999999980  0.4489000000000019   
  0.1876000000000033  0.6037999999999997  0.5433999999999983   
  0.8123999999999967  0.6037999999999997  0.5433999999999983  
  0.6876000000000033  0.8962000000000003  0.4566000000000017   
  0.3123999999999967  0.8962000000000003  0.4566000000000017   
  0.0000000000000000  0.5285999999999973  0.2500000000000000   
  0.0000000000000000  0.4714000000000027  0.7500000000000000   
  0.5000000000000000  0.2843999999999980  0.4489000000000019   
  0.0000000000000000  0.2156000000000020  0.5510999999999981   
  0.1876000000000033  0.3962000000000003  0.4566000000000017   
  0.8123999999999967  0.3962000000000003  0.4566000000000017   
  0.3123999999999967  0.1037999999999997  0.5433999999999983  
  0.6876000000000033  0.1037999999999997  0.5433999999999983   
  0.5000000000000000  0.0285999999999973  0.2500000000000000   
  0.5000000000000000  0.9714000000000027  0.7500000000000000  
  0.5000000000000000  0.2843999999999980  0.0510999999999981   
  0.0000000000000000  0.2156000000000020  0.9489000000000019   
  0.1876000000000033  0.3962000000000003  0.0433999999999983   
  0.8123999999999967  0.3962000000000003  0.0433999999999983   
  0.3123999999999967  0.1037999999999997  0.9566000000000017   
  0.6876000000000033  0.1037999999999997  0.9566000000000017   
  0.7100999999999971  0.7175999999999974  0.2500000000000000   
  0.2899000000000029  0.7175999999999974  0.2500000000000000   
  0.2899000000000029  0.2824000000000026  0.7500000000000000   
  0.7100999999999971  0.2824000000000026  0.7500000000000000   
  0.2100999999999971  0.2175999999999974  0.2500000000000000   
  0.7899000000000029  0.7824000000000026  0.7500000000000000   
  0.7899000000000029  0.2175999999999974  0.2500000000000000  
  0.2100999999999971  0.7824000000000026  0.7500000000000000   
 
  0.00000000E+00  0.00000000E+00  0.00000000E+00
  0.00000000E+00  0.00000000E+00  0.00000000E+00
  0.00000000E+00  0.00000000E+00  0.00000000E+00
  0.00000000E+00  0.00000000E+00  0.00000000E+00
  0.00000000E+00  0.00000000E+00  0.00000000E+00
  0.00000000E+00  0.00000000E+00  0.00000000E+00
  0.00000000E+00  0.00000000E+00  0.00000000E+00
  0.00000000E+00  0.00000000E+00  0.00000000E+00
  0.00000000E+00  0.00000000E+00  0.00000000E+00
  0.00000000E+00  0.00000000E+00  0.00000000E+00
  0.00000000E+00  0.00000000E+00  0.00000000E+00
  0.00000000E+00  0.00000000E+00  0.00000000E+00
  0.00000000E+00  0.00000000E+00  0.00000000E+00
  0.00000000E+00  0.00000000E+00  0.00000000E+00
  0.00000000E+00  0.00000000E+00  0.00000000E+00
  0.00000000E+00  0.00000000E+00  0.00000000E+00
  0.00000000E+00  0.00000000E+00  0.00000000E+00
  0.00000000E+00  0.00000000E+00  0.00000000E+00
  0.00000000E+00  0.00000000E+00  0.00000000E+00
  0.00000000E+00  0.00000000E+00  0.00000000E+00
  0.00000000E+00  0.00000000E+00  0.00000000E+00
  0.00000000E+00  0.00000000E+00  0.00000000E+00
  0.00000000E+00  0.00000000E+00  0.00000000E+00
  0.00000000E+00  0.00000000E+00  0.00000000E+00
  0.00000000E+00  0.00000000E+00  0.00000000E+00
  0.00000000E+00  0.00000000E+00  0.00000000E+00
  0.00000000E+00  0.00000000E+00  0.00000000E+00
  0.00000000E+00  0.00000000E+00  0.00000000E+00
  0.00000000E+00  0.00000000E+00  0.00000000E+00
  0.00000000E+00  0.00000000E+00  0.00000000E+00
  0.00000000E+00  0.00000000E+00  0.00000000E+00
  0.00000000E+00  0.00000000E+00  0.00000000E+00
  0.00000000E+00  0.00000000E+00  0.00000000E+00
  0.00000000E+00  0.00000000E+00  0.00000000E+00
  0.00000000E+00  0.00000000E+00  0.00000000E+00
  0.00000000E+00  0.00000000E+00  0.00000000E+00
  0.00000000E+00  0.00000000E+00  0.00000000E+00
  0.00000000E+00  0.00000000E+00  0.00000000E+00
  0.00000000E+00  0.00000000E+00  0.00000000E+00
  0.00000000E+00  0.00000000E+00  0.00000000E+00
  0.00000000E+00  0.00000000E+00  0.00000000E+00
  0.00000000E+00  0.00000000E+00  0.00000000E+00
  0.00000000E+00  0.00000000E+00  0.00000000E+00
  0.00000000E+00  0.00000000E+00  0.00000000E+00
  0.00000000E+00  0.00000000E+00  0.00000000E+00
  0.00000000E+00  0.00000000E+00  0.00000000E+00
  0.00000000E+00  0.00000000E+00  0.00000000E+00
  0.00000000E+00  0.00000000E+00  0.00000000E+00
  0.00000000E+00  0.00000000E+00  0.00000000E+00
  0.00000000E+00  0.00000000E+00  0.00000000E+00
  0.00000000E+00  0.00000000E+00  0.00000000E+00
  0.00000000E+00  0.00000000E+00  0.00000000E+00
  0.00000000E+00  0.00000000E+00  0.00000000E+00
  0.00000000E+00  0.00000000E+00  0.00000000E+00
  0.00000000E+00  0.00000000E+00  0.00000000E+00
  0.00000000E+00  0.00000000E+00  0.00000000E+00
  0.00000000E+00  0.00000000E+00  0.00000000E+00
  0.00000000E+00  0.00000000E+00  0.00000000E+00
  0.00000000E+00  0.00000000E+00  0.00000000E+00
  0.00000000E+00  0.00000000E+00  0.00000000E+00
  0.00000000E+00  0.00000000E+00  0.00000000E+00
  0.00000000E+00  0.00000000E+00  0.00000000E+00
  0.00000000E+00  0.00000000E+00  0.00000000E+00
