Fe4 H16 N4 F16                          
   1.00000000000000     
     7.7633823214315241   -0.0001545595020695   -0.1100394231186210
     0.0000091753574435    6.1393882086980307   -0.0001146875748851
    -1.7936638071375695    0.0000116622052479    7.6541321271661591
   Fe   H    N    F 
     4    16     4    16
Direct
  0.1680983889964829  0.2492047957791484  0.2902525929849674
  0.8318393127569249  0.7507455352402541  0.7097868323908203
  0.8318796549977955  0.7492044822880443  0.2097518421012831
  0.1680561320649266  0.2507680633847265  0.7901877797679482
  0.3284314148832132  0.8577909971123643  0.9720100791054374
  0.3295047949535507  0.8562292479587292  0.1849945602252663
  0.4266287594489080  0.6533171351977073  0.1013982706192920
  0.2065397276229709  0.6716614117189418  0.0492112944139394
  0.3295058393737759  0.6437618618363079  0.6849751129340206
  0.4266451527361954  0.8467003936252703  0.6014206872048794
  0.2065574241953235  0.8283645590103350  0.5492333455255248
  0.3284285449495778  0.6422525471864224  0.4719900906483670
  0.7934480550570511  0.3285697390878753  0.9507985880729701
  0.5733798955781640  0.3465762537760656  0.8985882254829222
  0.6706851048562013  0.1438252269867330  0.8149870888568156
  0.6716765613083273  0.1421791035109329  0.0279713258503043
  0.6716685274101635  0.3578792427168541  0.5279434869828008
  0.6706758736722895  0.3562143858614847  0.3149816391813303
  0.5733517561610761  0.1535063638261729  0.3985829744854135
  0.7933831849524751  0.1715042364407580  0.4507767604613777
  0.6789638068409476  0.2590334228881714  0.4235761757263482
  0.3211423904702150  0.7589995330762715  0.0764152090034600
  0.3211314384457019  0.7410261301995802  0.5764117503208748
  0.6789482100388090  0.2410079820540277  0.9235678745678111
  0.6552940507625767  0.9610144783152720  0.1762211561178591
  0.3507186456474212  0.4588028808415954  0.8432143688487448
  0.6552994791981744  0.5390483575146132  0.6762257397566260
  0.3447064527817386  0.0390045703229061  0.8237699434799735
  0.3507050679772167  0.0412299619411937  0.3432308532683909
  0.8562128669818454  0.7673470706417556  0.9657422185608117
  0.1437537225722021  0.2673758249457724  0.5342378145498614
  0.6493027982706668  0.9588141441549961  0.6567751834061986
  0.1437715488685304  0.2326588788763403  0.0342389965472779
  0.6492822789724055  0.5412212038013955  0.1567444898234365
  0.0047754179772924  0.5058974832393457  0.7639660432426121
  0.3447212994132189  0.4610023420857723  0.3237680381526621
  0.9952101046370642  0.0059374759724992  0.7359442829384362
  0.8561711001297859  0.7326042562019333  0.4657211525747846
  0.9952110966911629  0.4940868956639933  0.2359274482806182
  0.0047861687772909  0.9940910770165071  0.2639937916413888
 
  0.00000000E+00  0.00000000E+00  0.00000000E+00
  0.00000000E+00  0.00000000E+00  0.00000000E+00
  0.00000000E+00  0.00000000E+00  0.00000000E+00
  0.00000000E+00  0.00000000E+00  0.00000000E+00
  0.00000000E+00  0.00000000E+00  0.00000000E+00
  0.00000000E+00  0.00000000E+00  0.00000000E+00
  0.00000000E+00  0.00000000E+00  0.00000000E+00
  0.00000000E+00  0.00000000E+00  0.00000000E+00
  0.00000000E+00  0.00000000E+00  0.00000000E+00
  0.00000000E+00  0.00000000E+00  0.00000000E+00
  0.00000000E+00  0.00000000E+00  0.00000000E+00
  0.00000000E+00  0.00000000E+00  0.00000000E+00
  0.00000000E+00  0.00000000E+00  0.00000000E+00
  0.00000000E+00  0.00000000E+00  0.00000000E+00
  0.00000000E+00  0.00000000E+00  0.00000000E+00
  0.00000000E+00  0.00000000E+00  0.00000000E+00
  0.00000000E+00  0.00000000E+00  0.00000000E+00
  0.00000000E+00  0.00000000E+00  0.00000000E+00
  0.00000000E+00  0.00000000E+00  0.00000000E+00
  0.00000000E+00  0.00000000E+00  0.00000000E+00
  0.00000000E+00  0.00000000E+00  0.00000000E+00
  0.00000000E+00  0.00000000E+00  0.00000000E+00
  0.00000000E+00  0.00000000E+00  0.00000000E+00
  0.00000000E+00  0.00000000E+00  0.00000000E+00
  0.00000000E+00  0.00000000E+00  0.00000000E+00
  0.00000000E+00  0.00000000E+00  0.00000000E+00
  0.00000000E+00  0.00000000E+00  0.00000000E+00
  0.00000000E+00  0.00000000E+00  0.00000000E+00
  0.00000000E+00  0.00000000E+00  0.00000000E+00
  0.00000000E+00  0.00000000E+00  0.00000000E+00
  0.00000000E+00  0.00000000E+00  0.00000000E+00
  0.00000000E+00  0.00000000E+00  0.00000000E+00
  0.00000000E+00  0.00000000E+00  0.00000000E+00
  0.00000000E+00  0.00000000E+00  0.00000000E+00
  0.00000000E+00  0.00000000E+00  0.00000000E+00
  0.00000000E+00  0.00000000E+00  0.00000000E+00
  0.00000000E+00  0.00000000E+00  0.00000000E+00
  0.00000000E+00  0.00000000E+00  0.00000000E+00
  0.00000000E+00  0.00000000E+00  0.00000000E+00
  0.00000000E+00  0.00000000E+00  0.00000000E+00
