Fe4 H16 N4 F16                          
   1.00000000000000     
     7.6235893137356028    0.0003624548029141    0.0267004912042273
     0.0003985635812667    5.8317328366920886    0.0000007376150659
    -1.6264793805796407    0.0000336972717828    7.4611220953381192
   Fe   H    N    F 
     4    16     4    16
Direct
  0.1625433353289189  0.2538020742154560  0.2890414275204149
  0.8375322930502203  0.7467276585727196  0.7111121109970455
  0.8374746133564569  0.7531002921582954  0.2112034276813431
  0.1625780613422990  0.2463297659383304  0.7890717037008750
  0.3313943112092095  0.8775597307056312 -0.0314657537810699
  0.3363900825936729  0.8783187978800592  0.1900589286288821
  0.4340107499391018  0.6663165106832452  0.0991785226610716
  0.2128386159105805  0.6830342775253038  0.0575556972181346
  0.3366553558320144  0.6214094553459689  0.6899763108370573
  0.4342336513628053  0.8335875027713255  0.5992430164979897
  0.2130716237119591  0.8169727049748363  0.5577833523927999
  0.3315017419883925  0.6226204121263500  0.4684274271873801
  0.7870519911476661  0.3177481325106848  0.9420420397780667
  0.5659188154761137  0.3338061360558676  0.9009892020081491
  0.6635023606223928  0.1218696196921356  0.8100127581917996
  0.6691006468337107  0.1230701875018632  0.0315836817914738
  0.6690277912557741  0.3771287141210372  0.5314712550786372
  0.6635297212950461  0.3780343646689205  0.3099001849094927
  0.5658308038058214  0.1662346461208006  0.4010137080528723
  0.7869840465229321  0.1822261941185289  0.4421740719420844
  0.6723877613064870  0.2763858266457018  0.4215843476201298
  0.3276337883869215  0.7767876362057674  0.0783387636159119
  0.3278474243443738  0.7231599751986506  0.5783708263620058
  0.6724634763690767  0.2236686020653475  0.9216229859871830
  0.6563988157903969  0.9578633591492127  0.1988828345988476
  0.3394317755666038  0.4578374488868407  0.8598621993081070
  0.6565413085985005  0.5422518680504264  0.6989079608487240
  0.3434908691919861  0.0421203043308198  0.8008787285136311
  0.3392887001834635  0.0422128027078086  0.3598640982520896
  0.8543482155293102  0.8102083570626388  0.9641955487587879
  0.1455332195910278  0.3099006550520449  0.5357635336650221
  0.6604818453297201 -0.0421700210291364  0.6401469990752144
  0.1454923649372896  0.1901488944605673  0.0357816591913660
  0.6604621865963289  0.5422967714412350  0.1401582418246446
  0.9957937699601238  0.4934692327774506  0.7868397739506044
  0.3435335147522000  0.4579033698026048  0.3008354033076795
  0.0041083096449390  0.9934579978153845  0.7130237745739456
  0.8543051149567654  0.6898670569896556  0.4641882005705820
  0.0040438932471539  0.5065026994407988  0.2130790163461208
  0.9957350845618971  0.0066895375578855  0.2868371384387870
 
  0.00000000E+00  0.00000000E+00  0.00000000E+00
  0.00000000E+00  0.00000000E+00  0.00000000E+00
  0.00000000E+00  0.00000000E+00  0.00000000E+00
  0.00000000E+00  0.00000000E+00  0.00000000E+00
  0.00000000E+00  0.00000000E+00  0.00000000E+00
  0.00000000E+00  0.00000000E+00  0.00000000E+00
  0.00000000E+00  0.00000000E+00  0.00000000E+00
  0.00000000E+00  0.00000000E+00  0.00000000E+00
  0.00000000E+00  0.00000000E+00  0.00000000E+00
  0.00000000E+00  0.00000000E+00  0.00000000E+00
  0.00000000E+00  0.00000000E+00  0.00000000E+00
  0.00000000E+00  0.00000000E+00  0.00000000E+00
  0.00000000E+00  0.00000000E+00  0.00000000E+00
  0.00000000E+00  0.00000000E+00  0.00000000E+00
  0.00000000E+00  0.00000000E+00  0.00000000E+00
  0.00000000E+00  0.00000000E+00  0.00000000E+00
  0.00000000E+00  0.00000000E+00  0.00000000E+00
  0.00000000E+00  0.00000000E+00  0.00000000E+00
  0.00000000E+00  0.00000000E+00  0.00000000E+00
  0.00000000E+00  0.00000000E+00  0.00000000E+00
  0.00000000E+00  0.00000000E+00  0.00000000E+00
  0.00000000E+00  0.00000000E+00  0.00000000E+00
  0.00000000E+00  0.00000000E+00  0.00000000E+00
  0.00000000E+00  0.00000000E+00  0.00000000E+00
  0.00000000E+00  0.00000000E+00  0.00000000E+00
  0.00000000E+00  0.00000000E+00  0.00000000E+00
  0.00000000E+00  0.00000000E+00  0.00000000E+00
  0.00000000E+00  0.00000000E+00  0.00000000E+00
  0.00000000E+00  0.00000000E+00  0.00000000E+00
  0.00000000E+00  0.00000000E+00  0.00000000E+00
  0.00000000E+00  0.00000000E+00  0.00000000E+00
  0.00000000E+00  0.00000000E+00  0.00000000E+00
  0.00000000E+00  0.00000000E+00  0.00000000E+00
  0.00000000E+00  0.00000000E+00  0.00000000E+00
  0.00000000E+00  0.00000000E+00  0.00000000E+00
  0.00000000E+00  0.00000000E+00  0.00000000E+00
  0.00000000E+00  0.00000000E+00  0.00000000E+00
  0.00000000E+00  0.00000000E+00  0.00000000E+00
  0.00000000E+00  0.00000000E+00  0.00000000E+00
  0.00000000E+00  0.00000000E+00  0.00000000E+00
