Potassium
1.0
        5.3280000687         0.0000000000         0.0000000000
        0.0000000000         5.3280000687         0.0000000000
        0.0000000000         0.0000000000         5.3280000687
    K
    2
Direct
     0.000000000         0.000000000         0.000000000
     0.500000000         0.500000000         0.500000000

