Sodium iron fluoride                    
   1.00000000000000     
     5.6067990351911936    0.0000363597201234   -0.0000027229500318
     0.0000495923388582    7.8873791104271689    0.0000282299649746
     0.0000013392352179    0.0000157948148380    5.3982373360025999
   Na   Fe   F 
     4     4    12
Direct
  0.0583376124020999  0.2500023486701511  0.9843205248021173
  0.9414313963593687  0.7499935762009398  0.0158055490454061
  0.4413844770262916  0.7500258532661773  0.4841586304689928
  0.5583850858749217  0.2499904821292371  0.5156917579467939
  0.5000497376182321  0.0000333738990237  0.0000406909644978
  0.0000557792197672  0.0000375330098764  0.4999468074529958
  0.5000543374955769  0.4999612621470517  0.0000614431765742
  0.0000548379692946  0.4999642916815584  0.4999600467583459
  0.4450379905588630  0.2499964097964008  0.1177806297941246
  0.5549648737329124  0.7499998978420030  0.8821822700060807
  0.0549520529326394  0.7500006414592265  0.6178012620719378
  0.9450441786715622  0.2499986296270398  0.3822304008835974
  0.2967656831665120  0.0632024051938093  0.6848452874125768
  0.7032921981381933  0.9367921152713838  0.3151174255505436
  0.2032903981306821  0.9367959389741872  0.1848779374517284
  0.7967760638644356  0.0631998541310817  0.8151589536554744
  0.7032924159368495  0.5632065088347987  0.3151246834439409
  0.2967718421701997  0.4367970766879019  0.6848491693534556
  0.7967682724609240  0.4367911050212324  0.8151601233596517
  0.2032907552706554  0.5632106901568975  0.1848863994011602
 
  0.00000000E+00  0.00000000E+00  0.00000000E+00
  0.00000000E+00  0.00000000E+00  0.00000000E+00
  0.00000000E+00  0.00000000E+00  0.00000000E+00
  0.00000000E+00  0.00000000E+00  0.00000000E+00
  0.00000000E+00  0.00000000E+00  0.00000000E+00
  0.00000000E+00  0.00000000E+00  0.00000000E+00
  0.00000000E+00  0.00000000E+00  0.00000000E+00
  0.00000000E+00  0.00000000E+00  0.00000000E+00
  0.00000000E+00  0.00000000E+00  0.00000000E+00
  0.00000000E+00  0.00000000E+00  0.00000000E+00
  0.00000000E+00  0.00000000E+00  0.00000000E+00
  0.00000000E+00  0.00000000E+00  0.00000000E+00
  0.00000000E+00  0.00000000E+00  0.00000000E+00
  0.00000000E+00  0.00000000E+00  0.00000000E+00
  0.00000000E+00  0.00000000E+00  0.00000000E+00
  0.00000000E+00  0.00000000E+00  0.00000000E+00
  0.00000000E+00  0.00000000E+00  0.00000000E+00
  0.00000000E+00  0.00000000E+00  0.00000000E+00
  0.00000000E+00  0.00000000E+00  0.00000000E+00
  0.00000000E+00  0.00000000E+00  0.00000000E+00
