Sodium iron fluoride
1.0
        5.6574997902         0.0000000000         0.0000000000
        0.0000000000         7.8754000664         0.0000000000
        0.0000000000         0.0000000000         5.4833002090
   Na   Fe    F
    4    4   12
Direct
     0.054299999         0.250000000         0.986500025
     0.945699990         0.750000000         0.013499975
     0.445699990         0.750000000         0.486500025
     0.554300010         0.250000000         0.513499975
     0.500000000         0.000000000         0.000000000
     0.000000000         0.000000000         0.500000000
     0.500000000         0.500000000         0.000000000
     0.000000000         0.500000000         0.500000000
     0.455900013         0.250000000         0.108700000
     0.544099987         0.750000000         0.891300023
     0.044099987         0.750000000         0.608699977
     0.955900013         0.250000000         0.391299993
     0.301099986         0.056600001         0.691999972
     0.698899984         0.943400025         0.308000028
     0.198900014         0.943400025         0.191999972
     0.801100016         0.056600001         0.808000028
     0.698899984         0.556599975         0.308000028
     0.301099986         0.443399996         0.691999972
     0.801100016         0.443399996         0.808000028
     0.198900014         0.556599975         0.191999972
