Potassium iron iron(III) fluoride       
   1.00000000000000     
     6.8541169618873399   -0.0011736262924921    0.0038335526000057
    -0.0018808440350279    7.4097110622619828   -0.0000124905059648
    -0.0019827047723806   -0.0001764796198979    9.9610172325896134
   K    Fe   F 
     4     8    24
Direct
  0.9906466304167134  0.2501507385956245  0.6148665182777112
  0.0079797064722697  0.7489044871725151  0.3844362068435810
  0.5094462084355086  0.7499176602478391  0.1151418122152727
  0.4905639357702607  0.2498692370341052  0.8849814923901320
  0.0010740582893280  0.9981938941952736  0.0002157259434277
  0.4995189102041446  0.0014469618062306  0.4996716949321259
  0.0004553346192884  0.4986710776328629  0.0003571695911614
  0.4991738946695622  0.5015052579164585  0.5000492731882681
  0.1904291806978553  0.2500608994251871  0.2719684621677744
  0.8064984016466715  0.7502827282304617  0.7268634057083621
  0.3061986773918860  0.7499340021848347  0.7729716100725609
  0.6904057919465464  0.2499962836342455  0.2279388003329495
  0.9187390208191920  0.2499228838292893  0.3458966868285757
  0.0797865524426893  0.7505053325953723  0.6534091909855827
  0.5797326130128092  0.7498392077522047  0.8459481595931327
  0.4189693386724410  0.2501629329603996  0.1539160747864610
  0.0785541133893688  0.2489702255686174  0.9701401536905714
  0.9227962104864360  0.7488974762608389  0.0305743866120776
  0.4219348773205380  0.7510891575400134  0.4699343855073036
  0.5772985238799250  0.2511834941822393  0.5298618874560489
  0.1090158243900030  0.4956227568838107  0.1774606304061539
  0.8928121493887415  0.5060733757172662  0.8232746229967693
  0.3905062055813133  0.5058059703610278  0.6767813543869151
  0.6090813146564177  0.4965144309650036  0.3229869750171842
  0.8927967551208598  0.9936081281542900  0.8233434060628141
  0.1097811280745272  0.0033600116348588  0.1773468954071660
  0.6084057518824509  0.0043275364633173  0.3225409600595207
  0.3912134945063718  0.9946886309614806  0.6766843131810115
  0.7497979110543186  0.4323428941103073  0.0703850146496875
  0.2519956109491939  0.5656156763335042  0.9307793153741128
  0.7509902067231969  0.5663789011124200  0.5699054650555565
  0.2494591642483037  0.4336281536680525  0.4292441102119685
  0.2528955916239741  0.9335922992701622  0.9306113752080827
  0.7509458368072347  0.0665043602571451  0.0706394899940903
  0.2491543759354476  0.0676093941115347  0.4294084070964743
  0.7509467404742574  0.9348235412311842  0.5694645217694649
 
  0.00000000E+00  0.00000000E+00  0.00000000E+00
  0.00000000E+00  0.00000000E+00  0.00000000E+00
  0.00000000E+00  0.00000000E+00  0.00000000E+00
  0.00000000E+00  0.00000000E+00  0.00000000E+00
  0.00000000E+00  0.00000000E+00  0.00000000E+00
  0.00000000E+00  0.00000000E+00  0.00000000E+00
  0.00000000E+00  0.00000000E+00  0.00000000E+00
  0.00000000E+00  0.00000000E+00  0.00000000E+00
  0.00000000E+00  0.00000000E+00  0.00000000E+00
  0.00000000E+00  0.00000000E+00  0.00000000E+00
  0.00000000E+00  0.00000000E+00  0.00000000E+00
  0.00000000E+00  0.00000000E+00  0.00000000E+00
  0.00000000E+00  0.00000000E+00  0.00000000E+00
  0.00000000E+00  0.00000000E+00  0.00000000E+00
  0.00000000E+00  0.00000000E+00  0.00000000E+00
  0.00000000E+00  0.00000000E+00  0.00000000E+00
  0.00000000E+00  0.00000000E+00  0.00000000E+00
  0.00000000E+00  0.00000000E+00  0.00000000E+00
  0.00000000E+00  0.00000000E+00  0.00000000E+00
  0.00000000E+00  0.00000000E+00  0.00000000E+00
  0.00000000E+00  0.00000000E+00  0.00000000E+00
  0.00000000E+00  0.00000000E+00  0.00000000E+00
  0.00000000E+00  0.00000000E+00  0.00000000E+00
  0.00000000E+00  0.00000000E+00  0.00000000E+00
  0.00000000E+00  0.00000000E+00  0.00000000E+00
  0.00000000E+00  0.00000000E+00  0.00000000E+00
  0.00000000E+00  0.00000000E+00  0.00000000E+00
  0.00000000E+00  0.00000000E+00  0.00000000E+00
  0.00000000E+00  0.00000000E+00  0.00000000E+00
  0.00000000E+00  0.00000000E+00  0.00000000E+00
  0.00000000E+00  0.00000000E+00  0.00000000E+00
  0.00000000E+00  0.00000000E+00  0.00000000E+00
  0.00000000E+00  0.00000000E+00  0.00000000E+00
  0.00000000E+00  0.00000000E+00  0.00000000E+00
  0.00000000E+00  0.00000000E+00  0.00000000E+00
  0.00000000E+00  0.00000000E+00  0.00000000E+00
