Potassium iron iron(III) fluoride       
   1.00000000000000     
     6.8574965073792926   -0.0025051562270410    0.0050421416538697
    -0.0032707362736207    7.4025575780934743   -0.0014217448962086
     0.0000925090064779   -0.0015634854421384    9.9635546047232069
   K    Fe   F 
     4     8    24
Direct
  0.9923874949644496  0.2503649507021006  0.6142358676382935
  0.0061155711955075  0.7491616701668630  0.3822207823390800
  0.5096549531339901  0.7499628855927054  0.1158993865360695
  0.4911564964939674  0.2494436584934319  0.8857564530059653
  0.0009127595271612 -0.0016157996978365  0.0003981438634121
  0.4995175097449878  0.0014139946534222  0.4994351489543201
  0.0008469985966995  0.4991645536948756  0.0007611972911956
  0.4993955972594640  0.5014499691737662  0.5000827056361028
  0.1913911925233076  0.2491793308236402  0.2722166058408004
  0.8061227289662547  0.7507445491138270  0.7268932084616780
  0.3063686673472267  0.7498065709097667  0.7721568861133492
  0.6907786153381108  0.2500963676146292  0.2279609740651909
  0.9197657241538421  0.2497051123350546  0.3454588358520774
  0.0787094144089523  0.7505099846934959  0.6530758164239259
  0.5787409093200298  0.7499567951395476  0.8452403629526853
  0.4199610707572143  0.2497766535578023  0.1543867440230061
  0.0786430889662103  0.2489909402789700  0.9711221074334810
  0.9221282655916669  0.7489335709784154  0.0320663693218305
  0.4223333578315482  0.7513921904355079  0.4688002335093437
  0.5771347061200055  0.2511896874112620  0.5296943090256859
  0.1102641493546277  0.4959090008287386  0.1776975432332916
  0.8924526848538640  0.5066618474045678  0.8240661654178605
  0.3881713904362837  0.5051853364773290  0.6762959893277283
  0.6102670188446525  0.4963458947395596  0.3234035670177063
  0.8914030214138520  0.9942329745348152  0.8239464152743071
  0.1103867707353968  0.0026923218999055  0.1773271292844613
  0.6095370744653955  0.0044870291461593  0.3227702259189038
  0.3898729715574284 -0.0049438858898359  0.6760385189279983
  0.7502848763435246  0.4332191446610325  0.0709030909347470
  0.2518299839782259  0.5659605686320516  0.9306418899298926
  0.7502742958517173  0.5660714977707910  0.5707037934285852
  0.2503749116755747  0.4332169620486777  0.4286512655867974
  0.2520644976533676  0.9335696001581861  0.9298474123767565
  0.7510153565910077  0.0660279502162414  0.0710228646462980
  0.2494047534087328  0.0663985228469255  0.4289905098871727
  0.7503311625958065  0.9353375984535724  0.5698314345200174
 
  0.00000000E+00  0.00000000E+00  0.00000000E+00
  0.00000000E+00  0.00000000E+00  0.00000000E+00
  0.00000000E+00  0.00000000E+00  0.00000000E+00
  0.00000000E+00  0.00000000E+00  0.00000000E+00
  0.00000000E+00  0.00000000E+00  0.00000000E+00
  0.00000000E+00  0.00000000E+00  0.00000000E+00
  0.00000000E+00  0.00000000E+00  0.00000000E+00
  0.00000000E+00  0.00000000E+00  0.00000000E+00
  0.00000000E+00  0.00000000E+00  0.00000000E+00
  0.00000000E+00  0.00000000E+00  0.00000000E+00
  0.00000000E+00  0.00000000E+00  0.00000000E+00
  0.00000000E+00  0.00000000E+00  0.00000000E+00
  0.00000000E+00  0.00000000E+00  0.00000000E+00
  0.00000000E+00  0.00000000E+00  0.00000000E+00
  0.00000000E+00  0.00000000E+00  0.00000000E+00
  0.00000000E+00  0.00000000E+00  0.00000000E+00
  0.00000000E+00  0.00000000E+00  0.00000000E+00
  0.00000000E+00  0.00000000E+00  0.00000000E+00
  0.00000000E+00  0.00000000E+00  0.00000000E+00
  0.00000000E+00  0.00000000E+00  0.00000000E+00
  0.00000000E+00  0.00000000E+00  0.00000000E+00
  0.00000000E+00  0.00000000E+00  0.00000000E+00
  0.00000000E+00  0.00000000E+00  0.00000000E+00
  0.00000000E+00  0.00000000E+00  0.00000000E+00
  0.00000000E+00  0.00000000E+00  0.00000000E+00
  0.00000000E+00  0.00000000E+00  0.00000000E+00
  0.00000000E+00  0.00000000E+00  0.00000000E+00
  0.00000000E+00  0.00000000E+00  0.00000000E+00
  0.00000000E+00  0.00000000E+00  0.00000000E+00
  0.00000000E+00  0.00000000E+00  0.00000000E+00
  0.00000000E+00  0.00000000E+00  0.00000000E+00
  0.00000000E+00  0.00000000E+00  0.00000000E+00
  0.00000000E+00  0.00000000E+00  0.00000000E+00
  0.00000000E+00  0.00000000E+00  0.00000000E+00
  0.00000000E+00  0.00000000E+00  0.00000000E+00
  0.00000000E+00  0.00000000E+00  0.00000000E+00
