Na4 Fe4 F14                             
   1.00000000000000     
    -7.4740919081954980   -0.0025729292418883   -0.0000240629565320
    -3.7438646477910313   -5.1016581913323513   -3.6331739609442870
    -3.7438599387674341   -5.1016328942204892    3.6331628214300298
   F    Fe   Na
    14     4     4
Direct
  0.0001400488134707  0.0563036508832958  0.9441680053699956
  0.5001369980297778  0.9441773353930890  0.0563024648112872
  0.1509017578769165  0.3663040001360932  0.3324775750114414
  0.8502743088011024  0.6657674902676526  0.6332197428360586
  0.6509100764620012  0.3324639994017083  0.3663103233600141
  0.3502805289503622  0.6332041024420219  0.6657733398161528
  0.9043632030967800  0.6828332551041936  0.0581344519012545
  0.6452543512983656  0.9435471757204281  0.3176087338155504
  0.8542147750276486  0.0561472697077728  0.6838111830608621
  0.3542171127574073  0.6838257438235396  0.0561220497171288
  0.1452385901555416  0.3176163391923928  0.9435549709855152
  0.4043767295512257  0.0581445021213638  0.6828181726985182
  0.0952004098243540  0.9422312955621088  0.3183062749807149
  0.5951792400266911  0.3183139849804003  0.9422562968200295
  0.7496288594766498  0.0009173899201684  0.0005676934432839
  0.2496259222517063  0.0005796502403198  0.0009044771583485
  0.2497817807486589  0.5011675772298267  0.9991251162173356
  0.7498071238803941  0.9991114543775050  0.5011590222053040
  0.7500716867235103  0.5002067991133625  0.4974612696521769
  0.2500751462572662  0.4974529936263107  0.5002113259050543
  0.2501705283612793 -0.0007810898584459  0.5004690486616519
  0.7501508216288547  0.5004650806148850 -0.0007615384276780
 
  0.00000000E+00  0.00000000E+00  0.00000000E+00
  0.00000000E+00  0.00000000E+00  0.00000000E+00
  0.00000000E+00  0.00000000E+00  0.00000000E+00
  0.00000000E+00  0.00000000E+00  0.00000000E+00
  0.00000000E+00  0.00000000E+00  0.00000000E+00
  0.00000000E+00  0.00000000E+00  0.00000000E+00
  0.00000000E+00  0.00000000E+00  0.00000000E+00
  0.00000000E+00  0.00000000E+00  0.00000000E+00
  0.00000000E+00  0.00000000E+00  0.00000000E+00
  0.00000000E+00  0.00000000E+00  0.00000000E+00
  0.00000000E+00  0.00000000E+00  0.00000000E+00
  0.00000000E+00  0.00000000E+00  0.00000000E+00
  0.00000000E+00  0.00000000E+00  0.00000000E+00
  0.00000000E+00  0.00000000E+00  0.00000000E+00
  0.00000000E+00  0.00000000E+00  0.00000000E+00
  0.00000000E+00  0.00000000E+00  0.00000000E+00
  0.00000000E+00  0.00000000E+00  0.00000000E+00
  0.00000000E+00  0.00000000E+00  0.00000000E+00
  0.00000000E+00  0.00000000E+00  0.00000000E+00
  0.00000000E+00  0.00000000E+00  0.00000000E+00
  0.00000000E+00  0.00000000E+00  0.00000000E+00
  0.00000000E+00  0.00000000E+00  0.00000000E+00
