Na4 Fe4 F14                             
   1.00000000000000     
    -7.1793294374513916   -0.0049094509189088    0.0000419096147337
    -3.5958166967078538   -4.8101089124750658   -3.3053365532595733
    -3.5958803989552570   -4.8098434450422376    3.3050405975318831
   F    Fe   Na
    14     4     4
Direct
  0.9998951956426957  0.0687806499170148  0.9313945955266977
  0.4998791972940927  0.9314164883157340  0.0687879726562398
  0.1384982958803635  0.3710112992221744  0.3524541622999892
  0.8627984336751172  0.6461302946726124  0.6281129450505732
  0.6385053053806792  0.3524332840399748  0.3710224951192166
  0.3628045114749917  0.6281217911018470  0.6461195863593331
  0.8999355689511082  0.6647430723347652  0.0700858512306436
  0.6353998561519434  0.9311498900008984  0.3354312816571740
  0.8638854487553133  0.0682196184984359  0.6658842946836716
  0.3639003208841483  0.6659104313017655  0.0681709148307912
  0.1353859379716369  0.3354052162992203  0.9312001776526850
  0.3999266928042336  0.0701328719112742  0.6647143837859126
  0.0997935993274444  0.9296139584376529  0.3365295559339853
  0.5997810960311331  0.3365053265356927  0.9296687497603744
  0.7493429460258788  0.0007068454627629  0.0006228638131241
  0.2493391636760798  0.0006258956970095  0.0007057510678957
  0.2500557648038785  0.5004126162199093  0.9994228622789255
  0.7500570234705340  0.9994161412665469  0.5004109841238767
  0.7506358831048939  0.4993176204655995  0.4995142427772655
  0.2506358281207223  0.4995126393724256  0.4993198112237350
  0.2497732706279799  0.9997908400390345  0.5006349314679501
  0.7497706599451174  0.5006432088876493  0.9997915866999182
 
  0.00000000E+00  0.00000000E+00  0.00000000E+00
  0.00000000E+00  0.00000000E+00  0.00000000E+00
  0.00000000E+00  0.00000000E+00  0.00000000E+00
  0.00000000E+00  0.00000000E+00  0.00000000E+00
  0.00000000E+00  0.00000000E+00  0.00000000E+00
  0.00000000E+00  0.00000000E+00  0.00000000E+00
  0.00000000E+00  0.00000000E+00  0.00000000E+00
  0.00000000E+00  0.00000000E+00  0.00000000E+00
  0.00000000E+00  0.00000000E+00  0.00000000E+00
  0.00000000E+00  0.00000000E+00  0.00000000E+00
  0.00000000E+00  0.00000000E+00  0.00000000E+00
  0.00000000E+00  0.00000000E+00  0.00000000E+00
  0.00000000E+00  0.00000000E+00  0.00000000E+00
  0.00000000E+00  0.00000000E+00  0.00000000E+00
  0.00000000E+00  0.00000000E+00  0.00000000E+00
  0.00000000E+00  0.00000000E+00  0.00000000E+00
  0.00000000E+00  0.00000000E+00  0.00000000E+00
  0.00000000E+00  0.00000000E+00  0.00000000E+00
  0.00000000E+00  0.00000000E+00  0.00000000E+00
  0.00000000E+00  0.00000000E+00  0.00000000E+00
  0.00000000E+00  0.00000000E+00  0.00000000E+00
  0.00000000E+00  0.00000000E+00  0.00000000E+00
