Fe2 H12 N6 F6                           
   1.00000000000000     
     7.6878425302285587   -0.0127986377529397   -0.0000412618074625
    -0.0126738059301165    7.6567032665643433   -0.0003850577485973
    -0.0000065806345295   -0.0001830846828110    3.8957254001270205
   Fe   H    F    O 
     2    12     6     6
Direct
  0.5040361656417822  0.0000512698068956  0.1300511486078629
  0.0040338434425600  0.5000151127231399  0.8699026487825198
  0.9384835321867481  0.1592706763801237  0.7295987673332424
  0.7841986251460222  0.2443755489116806  0.9686019293507547
  0.6639506537450984  0.5592188424917056  0.7343102636407082
  0.7481369414064761  0.7155630140870011  0.9702249118925530
  0.9036346266111734  0.9605380562412399  0.3571809481877748
  0.0365871138772524  0.9002286511606160  0.6450725248182163
  0.1639802671873781  0.0592289068302528  0.2657156947019928
  0.2481434617490239  0.2155593549347304  0.0297699707102511
  0.2842064634600202  0.7444014322648277  0.0312742411725978
  0.4384663519131698  0.6593118183093064  0.2703816762218469
  0.5365415708774954  0.4003009933195855  0.3548890406236073
  0.4036044437700298  0.4605711534627643  0.6426986580208015
  0.0078119758407712  0.5013434458774305  0.3717245692085517
  0.5078756493449779  0.0013618988983473  0.6282539146717986
  0.5958690781530896  0.2331678482019652  0.1217590711906472
  0.2344625859645767  0.4044412864593514  0.8712084512233129
  0.0959182638134531  0.7331296834810986  0.8782018884457754
  0.7344943298083683  0.9044856230414413  0.1287397633187347
  0.5021467422581027  0.4999722519869470  0.4999857667392748
  0.9038361175277094  0.2601564180864311  0.8792577658623619
  0.7636326231322904  0.5949112648011026  0.8846804952749031
  0.0022377105853602  0.9999613360329431  0.4999660855901426
  0.2636370870883986  0.0949451466622502  0.1153676639910364
  0.4038605424454824  0.7601987127423896  0.1206714551031493
 
  0.00000000E+00  0.00000000E+00  0.00000000E+00
  0.00000000E+00  0.00000000E+00  0.00000000E+00
  0.00000000E+00  0.00000000E+00  0.00000000E+00
  0.00000000E+00  0.00000000E+00  0.00000000E+00
  0.00000000E+00  0.00000000E+00  0.00000000E+00
  0.00000000E+00  0.00000000E+00  0.00000000E+00
  0.00000000E+00  0.00000000E+00  0.00000000E+00
  0.00000000E+00  0.00000000E+00  0.00000000E+00
  0.00000000E+00  0.00000000E+00  0.00000000E+00
  0.00000000E+00  0.00000000E+00  0.00000000E+00
  0.00000000E+00  0.00000000E+00  0.00000000E+00
  0.00000000E+00  0.00000000E+00  0.00000000E+00
  0.00000000E+00  0.00000000E+00  0.00000000E+00
  0.00000000E+00  0.00000000E+00  0.00000000E+00
  0.00000000E+00  0.00000000E+00  0.00000000E+00
  0.00000000E+00  0.00000000E+00  0.00000000E+00
  0.00000000E+00  0.00000000E+00  0.00000000E+00
  0.00000000E+00  0.00000000E+00  0.00000000E+00
  0.00000000E+00  0.00000000E+00  0.00000000E+00
  0.00000000E+00  0.00000000E+00  0.00000000E+00
  0.00000000E+00  0.00000000E+00  0.00000000E+00
  0.00000000E+00  0.00000000E+00  0.00000000E+00
  0.00000000E+00  0.00000000E+00  0.00000000E+00
  0.00000000E+00  0.00000000E+00  0.00000000E+00
  0.00000000E+00  0.00000000E+00  0.00000000E+00
  0.00000000E+00  0.00000000E+00  0.00000000E+00
