Fe2 H12 N6 F6                           
   1.00000000000000     
     7.8460001945000002    0.0000000000000000    0.0000000000000000
     0.0000000000000000    7.8460001945000002    0.0000000000000000
     0.0000000000000000    0.0000000000000000    3.8770000935000000
   Fe   H    F    O 
     2    12     6     6
Direct
  0.5000000000000000  0.0000000000000000  0.8547000290000000   
  0.0000000000000000  0.5000000000000000  0.1453000010000025   
  0.9555003982059719  0.1751138867549548  0.7580083560540711   
  0.7896734430057982  0.2358471021054575  0.9715065256329146   
  0.6731648623747979  0.5421507187664018  0.7738047628425294   
  0.7409346927239190  0.7134757508732469  0.9653089171670254   
  0.8983522554011008  0.9675180849767745  0.3645987089943693   
  0.0294473380189151  0.8990339392894235  0.6404785649994534   
  0.1731376034566896  0.0421615810180589  0.2259169173559809   
  0.2409949879524001  0.2135971877333305  0.0350564444257279   
  0.2892396852736577  0.7363149303701196  0.0295107583286419   
  0.4556556051016643  0.6749002557003657  0.2406347547255852   
  0.5292132657016623  0.3991511984696735  0.3590722425055292   
  0.3984726077602722  0.4674450891377567  0.6355923606525919   
  0.0000000000000000  0.5000000000000000  0.6420999770000009   
  0.5000000000000000  0.0000000000000000  0.3578999940000003   
  0.6025000209999973  0.2246000020000025  0.1394000049999988   
  0.2246000020000025  0.3975000080000015  0.8605999950000012  
  0.1024999990000026  0.7246000170000002  0.8605999950000012   
  0.7246000170000002  0.8974999790000027  0.1394000049999988   
  0.5000000000000000  0.5000000000000000  0.5000000000000000   
  0.8974999790000027  0.2754000130000023  0.8605999950000012   
  0.7753999829999998  0.6025000209999973  0.8605999950000012   
  0.0000000000000000  0.0000000000000000  0.5000000000000000   
  0.2754000130000023  0.1024999990000026  0.1394000049999988   
  0.3975000080000015  0.7753999829999998  0.1394000049999988   
 
  0.00000000E+00  0.00000000E+00  0.00000000E+00
  0.00000000E+00  0.00000000E+00  0.00000000E+00
  0.00000000E+00  0.00000000E+00  0.00000000E+00
  0.00000000E+00  0.00000000E+00  0.00000000E+00
  0.00000000E+00  0.00000000E+00  0.00000000E+00
  0.00000000E+00  0.00000000E+00  0.00000000E+00
  0.00000000E+00  0.00000000E+00  0.00000000E+00
  0.00000000E+00  0.00000000E+00  0.00000000E+00
  0.00000000E+00  0.00000000E+00  0.00000000E+00
  0.00000000E+00  0.00000000E+00  0.00000000E+00
  0.00000000E+00  0.00000000E+00  0.00000000E+00
  0.00000000E+00  0.00000000E+00  0.00000000E+00
  0.00000000E+00  0.00000000E+00  0.00000000E+00
  0.00000000E+00  0.00000000E+00  0.00000000E+00
  0.00000000E+00  0.00000000E+00  0.00000000E+00
  0.00000000E+00  0.00000000E+00  0.00000000E+00
  0.00000000E+00  0.00000000E+00  0.00000000E+00
  0.00000000E+00  0.00000000E+00  0.00000000E+00
  0.00000000E+00  0.00000000E+00  0.00000000E+00
  0.00000000E+00  0.00000000E+00  0.00000000E+00
  0.00000000E+00  0.00000000E+00  0.00000000E+00
  0.00000000E+00  0.00000000E+00  0.00000000E+00
  0.00000000E+00  0.00000000E+00  0.00000000E+00
  0.00000000E+00  0.00000000E+00  0.00000000E+00
  0.00000000E+00  0.00000000E+00  0.00000000E+00
  0.00000000E+00  0.00000000E+00  0.00000000E+00
