Ammonium fluoride                       
   1.00000000000000     
     4.4146434107523316    0.0000092326849274   -0.0000001020096524
    -2.2073137112337293    3.8231981164992037    0.0000000798017405
    -0.0000001561307133    0.0000000515223799    7.0385698591278292
   F    N    H 
     2     2     8
Direct
  0.3333321983142237  0.6666678441709629 -0.0067055379328026
  0.6666678392489960  0.3333321013958256  0.4932943667693980
  0.3333327286268149  0.6666672430770990  0.3733435669824541
  0.6666672321700529  0.3333327726707294  0.8733434896819964
  0.3333328870951514  0.6666671250923303  0.2252406829154256
  0.6666670835528136  0.3333328891224532  0.7252406652182254
  0.4619217681558911  0.5380730294384829  0.4220738999661715
  0.4619274644584521 -0.0761493096186790  0.4220738217264611
  0.0761493186164634  0.5380777336330954  0.4220738198402277
  0.5380729881926122  0.4619218225597697  0.9220738319395739
  0.5380777049646662  0.0761492607114909  0.9220737444253457
 -0.0761493033961446  0.4619274877464407  0.9220737194675190
 
  0.00000000E+00  0.00000000E+00  0.00000000E+00
  0.00000000E+00  0.00000000E+00  0.00000000E+00
  0.00000000E+00  0.00000000E+00  0.00000000E+00
  0.00000000E+00  0.00000000E+00  0.00000000E+00
  0.00000000E+00  0.00000000E+00  0.00000000E+00
  0.00000000E+00  0.00000000E+00  0.00000000E+00
  0.00000000E+00  0.00000000E+00  0.00000000E+00
  0.00000000E+00  0.00000000E+00  0.00000000E+00
  0.00000000E+00  0.00000000E+00  0.00000000E+00
  0.00000000E+00  0.00000000E+00  0.00000000E+00
  0.00000000E+00  0.00000000E+00  0.00000000E+00
  0.00000000E+00  0.00000000E+00  0.00000000E+00
