Ammonium fluoride
1.0
        4.4388999939         0.0000000000         0.0000000000
       -2.2194499969         3.8442001596         0.0000000000
        0.0000000000         0.0000000000         7.1634998322
    F    N    H
    2    2    8
Direct
     0.333333343         0.666666687         0.000000000
     0.666666627         0.333333313         0.500000000
     0.333333343         0.666666687         0.378100008
     0.666666627         0.333333313         0.878100038
     0.333333343         0.666666687         0.216999993
     0.666666627         0.333333313         0.717000008
     0.439999998         0.560000002         0.421000004
     0.439999998         0.879999995         0.421000004
     0.120000005         0.560000002         0.421000004
     0.560000002         0.439999998         0.921000004
     0.560000002         0.120000005         0.921000004
     0.879999995         0.439999998         0.921000004
