Sodium fluoride                         
   1.00000000000000     
     4.5652707596028144    0.0000000546977434    0.0000000043818469
     0.0000000548135518    4.5652712287828185   -0.0000000795391263
     0.0000000047317294   -0.0000000794750286    4.5652710812602750
   Na   F 
     4     4
Direct
  0.0000000054326605  0.0000000004438192  0.0000000181530737
  0.9999999820467735  0.4999999884258770  0.4999999509113877
  0.4999999928124268  0.0000000045997481  0.4999999953127912
  0.4999999961064390  0.5000000071219333  0.0000000067530337
  0.5000000222688286  0.5000000052021960  0.4999999833211888
  0.5000000236396289  0.9999999884671809  0.0000000048902535
  0.9999999746384916  0.4999999954835985  0.0000000122186705
  0.0000000030547511  0.0000000102556399  0.5000000284396009
 
  0.00000000E+00  0.00000000E+00  0.00000000E+00
  0.00000000E+00  0.00000000E+00  0.00000000E+00
  0.00000000E+00  0.00000000E+00  0.00000000E+00
  0.00000000E+00  0.00000000E+00  0.00000000E+00
  0.00000000E+00  0.00000000E+00  0.00000000E+00
  0.00000000E+00  0.00000000E+00  0.00000000E+00
  0.00000000E+00  0.00000000E+00  0.00000000E+00
  0.00000000E+00  0.00000000E+00  0.00000000E+00
