Sodium fluoride
1.0
        4.7800002098         0.0000000000         0.0000000000
        0.0000000000         4.7800002098         0.0000000000
        0.0000000000         0.0000000000         4.7800002098
   Na    F
    4    4
Direct
     0.000000000         0.000000000         0.000000000
     0.000000000         0.500000000         0.500000000
     0.500000000         0.000000000         0.500000000
     0.500000000         0.500000000         0.000000000
     0.500000000         0.500000000         0.500000000
     0.500000000         0.000000000         0.000000000
     0.000000000         0.500000000         0.000000000
     0.000000000         0.000000000         0.500000000
