Fe6 H4 O2 F18                           
   1.00000000000000     
    -3.7115000000000000   -6.3650000000000002    0.0000000000000000
    -3.7115000000000000    6.3650000000000002    0.0000000000000000
     0.0000000000000000    0.0000000000000000   -7.5259999999999998
   Fe   H    O    F 
     6     4     2    18
Selective dynamics
Direct
  0.5000000000000000  0.0000000000000000  0.0000000000000000   F   F   F
  0.0000000000000000  0.5000000000000000  0.0000000000000000   F   F   F
  0.5000000000000000  0.5000000000000000  0.5000000000000000   F   F   F
  0.5000000000000000  0.5000000000000000  0.0000000000000000   F   F   F
  0.0000000000000000  0.5000000000000000  0.5000000000000000   F   F   F
  0.5000000000000000  0.0000000000000000  0.5000000000000000   F   F   F
  0.9606401341278215  0.0401160712950315  0.8586050860346219   T   T   T
  0.9508168761049802  0.0496785117486382  0.6537494737748375   T   T   T
  0.1482916111439323  0.0563928602656460  0.2559017524045544   T   T   T
  0.9426844787095376  0.8515693902575947  0.2557602544194495   T   T   T
  0.0005999999999986  0.9994000000000014  0.7500000000000000   F   F   F
  0.9994000000000014  0.0005999999999986  0.2500000000000000   F   F   F
  0.7843999999999980  0.2156000000000020  0.0510999999999981   F   F   F
  0.2156000000000020  0.7843999999999980  0.9489000000000019   F   F   F
  0.4162000000000035  0.2085999999999970  0.9566000000000017   F   F   F
  0.2085999999999970  0.4162000000000035  0.0433999999999983   F   F   F
  0.5837999999999965  0.7914000000000030  0.0433999999999983   F   F   F
  0.7914000000000030  0.5837999999999965  0.9566000000000017   F   F   F
  0.4714000000000027  0.5285999999999973  0.7500000000000000   F   F   F
  0.5285999999999973  0.4714000000000027  0.2500000000000000   F   F   F
  0.7843999999999980  0.2156000000000020  0.4489000000000019   F   F   F
  0.2156000000000020  0.7843999999999980  0.5510999999999981   F   F   F
  0.4162000000000035  0.2085999999999970  0.5433999999999983   F   F   F
  0.2085999999999970  0.4162000000000035  0.4566000000000017   F   F   F
  0.7914000000000030  0.5837999999999965  0.5433999999999983   F   F   F
  0.5837999999999965  0.7914000000000030  0.4566000000000017   F   F   F
  0.5722999999999985  0.0075000000000003  0.7500000000000000   F   F   F
  0.4277000000000015  0.9924999999999997  0.2500000000000000   F   F   F
  0.9924999999999997  0.4277000000000015  0.7500000000000000   F   F   F
  0.0075000000000003  0.5722999999999985  0.2500000000000000   F   F   F
 
  0.00000000E+00  0.00000000E+00  0.00000000E+00
  0.00000000E+00  0.00000000E+00  0.00000000E+00
  0.00000000E+00  0.00000000E+00  0.00000000E+00
  0.00000000E+00  0.00000000E+00  0.00000000E+00
  0.00000000E+00  0.00000000E+00  0.00000000E+00
  0.00000000E+00  0.00000000E+00  0.00000000E+00
  0.00000000E+00  0.00000000E+00  0.00000000E+00
  0.00000000E+00  0.00000000E+00  0.00000000E+00
  0.00000000E+00  0.00000000E+00  0.00000000E+00
  0.00000000E+00  0.00000000E+00  0.00000000E+00
  0.00000000E+00  0.00000000E+00  0.00000000E+00
  0.00000000E+00  0.00000000E+00  0.00000000E+00
  0.00000000E+00  0.00000000E+00  0.00000000E+00
  0.00000000E+00  0.00000000E+00  0.00000000E+00
  0.00000000E+00  0.00000000E+00  0.00000000E+00
  0.00000000E+00  0.00000000E+00  0.00000000E+00
  0.00000000E+00  0.00000000E+00  0.00000000E+00
  0.00000000E+00  0.00000000E+00  0.00000000E+00
  0.00000000E+00  0.00000000E+00  0.00000000E+00
  0.00000000E+00  0.00000000E+00  0.00000000E+00
  0.00000000E+00  0.00000000E+00  0.00000000E+00
  0.00000000E+00  0.00000000E+00  0.00000000E+00
  0.00000000E+00  0.00000000E+00  0.00000000E+00
  0.00000000E+00  0.00000000E+00  0.00000000E+00
  0.00000000E+00  0.00000000E+00  0.00000000E+00
  0.00000000E+00  0.00000000E+00  0.00000000E+00
  0.00000000E+00  0.00000000E+00  0.00000000E+00
  0.00000000E+00  0.00000000E+00  0.00000000E+00
  0.00000000E+00  0.00000000E+00  0.00000000E+00
  0.00000000E+00  0.00000000E+00  0.00000000E+00
