Iron deuteride                          
   1.00000000000000     
     2.9437582356958747   -0.0000000537594311   -0.0000013713673981
    -0.0000000529444134    2.9437088661484530   -0.0000000112657496
    -0.0000013737772885   -0.0000000154509790    2.9439901814746077
   Fe
     2
Direct
  0.9999998775422626  0.0000000014746398  0.9999999939163112
  0.5000001224577374  0.4999999985253602  0.5000000060836888
 
  0.00000000E+00  0.00000000E+00  0.00000000E+00
  0.00000000E+00  0.00000000E+00  0.00000000E+00
